20
Lattice="10.0 0.0 0.0 0.0 10.0 0.0 0.0 0.0 10.0" Properties=species:S:1:pos:R:3:forces:R:3:stresses:R:6:energies:R:1 energy=-31.00555499962858 stress="0.014047330709520753 0.00417515090289569 -0.004970395027142381 0.00417515090289569 0.007547491314930495 0.0029468886891274157 -0.004970395027142381 0.0029468886891274157 0.009687978696823233" free_energy=-31.00555499962858 pbc="F F F"
H        5.07407666       6.12877340       6.24629666      -1.26933957      -1.54329693       1.51853683       0.00123563       0.00062974       0.00136455       0.00014630       0.00033279       0.00056691      -2.54682154
H        4.32639706       3.79395773       4.06898427      -0.74239224      -1.68140687      -2.40167396       0.00045872      -0.00177382      -0.00099345       0.00054897      -0.00017547      -0.00044314      -1.95199119
H        4.38643389       5.53272618       6.92217486       4.32248815       0.53636132      -2.27282099       0.00244855       0.00120311       0.00132791       0.00045245      -0.00042764       0.00001008      -3.12593014
H        3.38821990       5.21450089       7.33496359       0.76596681       0.76704652      -1.18839147       0.00046140       0.00047959       0.00062149      -0.00022697      -0.00029488       0.00023124      -1.15563271
H        5.62747479       5.93130646       7.28066719      -3.61598655      -0.55707245      -3.21014438       0.00194928       0.00049152       0.00140553       0.00011250       0.00110197       0.00016693      -1.35996600
H        5.49347320       5.12778822       6.48795059      -2.62468574       0.78495994       0.94138326       0.00168515       0.00024323       0.00070322       0.00048773      -0.00027733      -0.00037647      -1.95155130
H        4.22968747       6.66196587       6.76916673       0.62495379      -2.64421650       0.04317096       0.00073006       0.00150372       0.00024538      -0.00001796       0.00003652      -0.00023620      -1.71379381
H        5.38407369       5.27285407       3.56015046      -3.40365309      -2.43571993       0.62922957       0.00027091       0.00070691       0.00055830      -0.00102721      -0.00122538       0.00039597      -1.20131405
H        3.98679499       4.82597272       4.06291340       0.74741070       3.58275355      -0.16073522       0.00009014      -0.00127197       0.00059265      -0.00007894      -0.00003454       0.00041738      -1.78075321
H        3.45184111       5.91233631       6.44062748       1.73548159      -0.97219979      -0.22036155       0.00121327       0.00072956       0.00051295       0.00020082      -0.00037067      -0.00017785      -1.82513332
H        6.64477347       6.37244409       3.26439400      -1.15288805      -1.57119222       0.82508763       0.00039365       0.00052823       0.00026986      -0.00059279      -0.00039163       0.00043762      -1.04733600
H        2.91319050       6.98891516       3.17950391       0.01339296      -0.02698219       0.01102032       0.00000719       0.00002918       0.00000487      -0.00001192       0.00000592      -0.00001448      -0.00415715
H        4.56645889       5.16124814       5.83332453      -0.72107164       1.73563174       2.13237507       0.00179048       0.00188299       0.00258683       0.00144266      -0.00015915       0.00033871      -2.11446265
H        6.21845005       5.69295999       4.11732660       3.21022729       3.31779116       0.66064891      -0.00010096       0.00118471       0.00031651      -0.00064587      -0.00089690       0.00053121      -1.52102643
H        3.38308974       4.19407312       5.64049682       1.76525260       0.52136065      -0.36691129       0.00085497       0.00097612       0.00074683       0.00045573      -0.00030808       0.00031393      -1.34388225
H        5.00379036       4.57038524       4.45163877       1.27466531       2.71555917       0.16873941       0.00062850       0.00061814       0.00144623      -0.00066928      -0.00097395       0.00036549      -1.82651505
H        6.81185679       6.69166350       4.31719669      -0.98783507      -1.55995559       0.23670414       0.00036170       0.00086181      -0.00022847       0.00008666       0.00005450       0.00054410      -0.98250238
H        3.25992084       4.14596251       4.53155439      -1.07878619       1.40862591      -2.25525401       0.00029862      -0.00119162      -0.00045751       0.00108565      -0.00078782       0.00034577      -1.94895465
H        6.84117177       2.99853105       6.41173406      -0.01966604       0.03107079       0.00111218       0.00001325       0.00003308       0.00000004       0.00000118      -0.00000075      -0.00002094      -0.00501948
H        3.90058642       3.41161308       4.98644593       1.15646498      -2.40911831       4.90828460      -0.00074317      -0.00031673      -0.00133573       0.00119717      -0.00017791       0.00077893      -1.59881170
