20
Lattice="10.0 0.0 0.0 0.0 10.0 0.0 0.0 0.0 10.0" Properties=species:S:1:pos:R:3:forces:R:3:stresses:R:6:energies:R:1 energy=-15.277652080521015 stress="0.011305056862888513 -0.00014158781964458044 -0.0009148249274927497 -0.00014158781964458044 0.013726785944694151 -0.004571347314834243 -0.0009148249274927497 -0.004571347314834243 0.005722782149159633" free_energy=-15.277652080521015 pbc="F F F"
H        5.84824465       6.43953738       6.92398624      -0.18623296      -1.19376935      -0.23094863       0.00064694       0.00068046       0.00013835       0.00006923       0.00011967       0.00006484      -0.70160958
H        3.89022767       3.37180919       4.20310417      -1.21528365      -0.82031198       1.82553862       0.00079395       0.00095001       0.00098784      -0.00082142      -0.00012143      -0.00012757      -0.95813473
H        3.77424370       5.96090195       6.85401091       0.92503692      -1.51148077      -0.12304573       0.00137237       0.00154043       0.00008233      -0.00003559      -0.00028530      -0.00048310      -1.94810434
H        3.15350809       5.01754008       7.10267676       0.48498312       3.49322376      -1.13176155       0.00097028       0.00194088       0.00018540      -0.00051142      -0.00009315      -0.00007386      -0.98982478
H        6.98253273       5.26044797       7.27082514      -1.09195390       0.52046238      -0.65173700       0.00068173       0.00029732       0.00027749      -0.00012383       0.00039678      -0.00031549      -0.21029365
H        5.75614923       5.51116854       6.28744979       0.48642210       0.20352010       0.73191620       0.00057587       0.00021065       0.00036455       0.00003254       0.00026027      -0.00007957      -1.13530630
H        3.32778991       7.01450043       6.80094497       1.11126262      -0.38493399       0.08513352      -0.00002423       0.00037069       0.00000592      -0.00005248      -0.00000124      -0.00054045      -1.02655725
H        5.68896699       5.64002638       3.15724856       0.93056239      -1.10483604       1.27545728       0.00123178       0.00116397       0.00035414      -0.00053009      -0.00019045       0.00090416      -0.86247360
H        2.64938139       4.89386986       4.06544241       0.22310188      -0.49903005       0.05235449       0.00012614       0.00037945       0.00002843      -0.00004964       0.00000949      -0.00013538      -0.53772465
H        2.66777816       6.12622951       6.78289116       0.30164997      -2.97722229       0.57413110       0.00005352       0.00082017       0.00011170      -0.00033759       0.00013546      -0.00081611      -1.38533900
H        7.36328936       7.01265866       2.72100618      -1.21202916      -1.81453894       1.10622863       0.00039463       0.00085319       0.00035233      -0.00047322      -0.00032737       0.00056826      -0.44851491
H        2.89780921       7.20749878       3.08992399      -0.00360166      -0.03354253       0.01414287       0.00000045       0.00003880       0.00000690      -0.00001636      -0.00000176       0.00000417      -0.00498168
H        4.72993924       5.25335269       6.66440551      -1.99003837       1.78251935       0.63388818       0.00178726       0.00084577       0.00009299       0.00017342      -0.00024179      -0.00036077      -1.15353591
H        6.77230745       6.09171073       3.25321903      -0.68055609       1.03492890      -1.05327334       0.00134461       0.00106690       0.00037137      -0.00039134      -0.00022072       0.00097952      -0.92416132
H        3.60100484       2.75760173       6.25378574       0.08429612       0.02492621      -0.59463371       0.00002252       0.00009485       0.00041092       0.00001490      -0.00004784      -0.00001083      -0.52760769
H        5.21432032       4.64204553       3.74725506       0.72934317       1.78133770      -1.04964609       0.00047206       0.00113040       0.00038353      -0.00061989      -0.00033808       0.00063952      -0.44688108
H        7.04796085       7.27841419       4.98635042      -0.05590870      -0.12707430      -0.12390236       0.00003480       0.00007807       0.00022244       0.00004636      -0.00002332       0.00004038      -0.04260528
H        2.81849176       3.78362183       4.18473185       1.24239286      -0.27203160       0.18075958       0.00070943       0.00043022       0.00012558      -0.00014989       0.00010432      -0.00035233      -1.04365209
H        6.90880392       2.80252375       6.40189560      -0.00404049       0.03880921       0.00919814       0.00000283       0.00004913       0.00000423       0.00001124       0.00000064      -0.00000558      -0.00391098
H        3.79901213       2.56451856       5.15635739      -0.07940620       1.85904423      -1.52980020       0.00010810       0.00078541       0.00121633      -0.00080626      -0.00004900      -0.00004141      -0.92643328
