20
Lattice="10.0 0.0 0.0 0.0 10.0 0.0 0.0 0.0 10.0" Properties=species:S:1:pos:R:3:forces:R:3:stresses:R:6:energies:R:1 energy=-55.20884348571696 stress="0.00023069658551328533 0.00467197847405609 0.0015002239515624408 0.00467197847405609 0.003978214383297866 -0.0031091191132521464 0.0015002239515624408 -0.0031091191132521464 0.001927309627545531" free_energy=-55.20884348571696 pbc="F F F"
H        4.90220991       5.99444699       5.63640716      -2.12032491       0.52159088       0.48108805      -0.00227152       0.00005279      -0.00097268      -0.00079750      -0.00008088       0.00014297      -4.25500695
H        4.44366045       4.03947031       3.95988941       5.85787218      -3.15469348       0.51896003      -0.00151123      -0.00121873       0.00100863       0.00001059       0.00101308       0.00108912      -2.06970146
H        4.50358472       5.26431307       6.44466691       3.52783676      -1.43529002      -1.34418249       0.00020317      -0.00069095      -0.00022350      -0.00105503      -0.00034238       0.00019434      -3.59380074
H        3.54858642       5.64235291       6.81027691      -0.68372600       1.27066728      -0.30791679      -0.00014305       0.00016626       0.00056717      -0.00004815      -0.00006906       0.00064861      -1.67741484
H        5.44376274       5.83483982       6.57944352      -0.00073998       0.61624884      -0.08912810       0.00082277       0.00016897       0.00042679       0.00028257      -0.00039246      -0.00033860      -2.72849467
H        5.48177225       5.03386627       5.79856589      -1.08191394      -1.44469386      -1.00753132       0.00000428       0.00041855       0.00210428       0.00053167      -0.00065031      -0.00079445      -4.08767466
H        4.41034191       6.35043028       6.56165535       0.21502841       0.20939427       0.40969430       0.00119357      -0.00024331       0.00013508       0.00010175      -0.00002565      -0.00003272      -2.63801722
H        5.28921616       5.49248355       4.75285258      -0.03866346      -3.93893066       1.99669766       0.00133563       0.00153936       0.00126239      -0.00053966       0.00071588       0.00101651      -4.15288967
H        4.33765890       5.04784809       4.33896563       0.22959620       0.38275656      -0.38661057       0.00148702       0.00035944      -0.00114459      -0.00096010       0.00043414       0.00031053      -3.55420631
H        3.82014141       5.85273793       5.74157788       0.04500192      -1.70705372       0.04753792       0.00018277       0.00072739       0.00095272       0.00031233       0.00019074      -0.00057618      -3.28292742
H        6.20040508       6.09482089       4.52156951      -0.17003779      -0.53746119      -0.94806370       0.00041367       0.00044359      -0.00044792      -0.00018221      -0.00017106       0.00015217      -1.68123426
H        3.00838039       6.69804762       3.34102727       0.06845870      -0.12758483       0.10331071       0.00004093       0.00011305       0.00007978      -0.00007906       0.00004418      -0.00005352      -0.02544143
H        4.47983486       5.00940376       5.39894968      -0.36067963       2.33674254       2.30141115      -0.00306072      -0.00192451      -0.00453376      -0.00099699      -0.00153316       0.00025259      -4.68035878
H        6.29999328       5.08667048       5.02576490      -2.36787433      -1.31751749      -0.43437950       0.00172974       0.00036164       0.00026747      -0.00020687      -0.00005485       0.00051932      -2.42890074
H        3.46095173       5.05704098       5.02976681      -1.08702876      -0.48505020      -0.19559730      -0.00032260       0.00085602       0.00051504       0.00038677      -0.00023151      -0.00014911      -2.79590489
H        5.14580244       4.33439080       4.87056908       0.95875232       3.93463484      -1.84228412       0.00201082       0.00245996       0.00182027       0.00027689       0.00186296       0.00103737      -3.27270213
H        5.98578517       5.98221401       5.59098983       0.71757491       1.12793204       1.17490258      -0.00065430      -0.00076969      -0.00006629       0.00041957       0.00070330       0.00033336      -3.07925750
H        3.43888703       4.36529992       4.14658793      -3.44170406       2.60767452       0.67704931      -0.00151351       0.00012412      -0.00007006       0.00022163       0.00055246       0.00120988      -2.07918819
H        6.62788336       3.36685605       6.34284310      -0.18247717       0.27577382      -0.15592126       0.00012419       0.00023861       0.00009316      -0.00011649       0.00007810      -0.00014002      -0.05191143
H        4.06290340       4.08244401       5.01514155      -0.08495139       0.86485985      -0.99903657       0.00015907       0.00079565       0.00015333      -0.00067083      -0.00054331      -0.00015019      -3.07381019
