20
Lattice="10.0 0.0 0.0 0.0 10.0 0.0 0.0 0.0 10.0" Properties=species:S:1:pos:R:3:forces:R:3:stresses:R:6:energies:R:1 energy=-69.37185078188108 stress="0.002806942993076944 -0.0023775441445030685 0.0003825733918152003 -0.0023775441445030685 0.002938931482954962 -0.00024252912611319149 0.0003825733918152003 -0.00024252912611319149 -0.00025636401326719233" free_energy=-69.37185078188108 pbc="F F F"
H        4.99639994       5.95629229       5.40767880      -0.02755432      -0.11497049      -0.15793653      -0.00080116       0.00047213      -0.00046008      -0.00083805      -0.00072756      -0.00004439      -4.75753224
H        4.59772384       4.76312392       4.08903413      -1.19765544       1.27753575      -0.37035185       0.00154507       0.00069968      -0.00016447       0.00029287      -0.00012143      -0.00062006      -3.18552723
H        4.47892867       5.22733267       6.18998531      -1.56095165       1.60047591       0.81726622       0.00050604       0.00000714      -0.00032477      -0.00151479       0.00051540       0.00030758      -4.20309350
H        3.46596843       5.66919567       6.36228224       0.27781984      -0.03658383      -0.12890056       0.00109744       0.00027754       0.00028481       0.00043914       0.00024640       0.00018107      -2.70658464
H        5.42417787       5.79817605       6.39885783       0.20716611      -0.03540990      -0.03025079       0.00128313       0.00019649       0.00032830       0.00037991      -0.00054948      -0.00008266      -2.75798627
H        5.41558985       4.92803125       5.71133428      -0.16489296       0.25538338      -0.00276785      -0.00225865      -0.00081231      -0.00006935      -0.00073816       0.00046759      -0.00035752      -4.73550467
H        4.41192604       6.31649615       6.28652081      -0.05310037      -0.01928784       0.03602725       0.00126757      -0.00000917       0.00033800       0.00030805      -0.00006979       0.00007880      -2.77179527
H        5.41527489       5.31212345       4.61652987       1.12064724      -1.27892813       1.34489459      -0.00139093       0.00033128       0.00099713      -0.00021616       0.00053584       0.00028885      -4.73250125
H        4.46151490       5.84316143       4.41651938      -0.34906729       0.19964481       0.14902436       0.00063811       0.00039021       0.00075364       0.00035023       0.00002690       0.00016785      -3.38228897
H        3.90197645       5.90587070       5.38731572       1.14201811      -1.69827635      -0.45107438      -0.00133905       0.00107922      -0.00021833      -0.00054512       0.00073544      -0.00052211      -4.62147994
H        6.46222518       5.59102383       4.40269183       0.18629279       0.16666265      -0.10079694       0.00027176       0.00010151       0.00015933      -0.00003985      -0.00020821       0.00002687      -1.72469542
H        2.85049087       5.59633209       5.39549495       0.21103563      -0.37930474      -0.18440336       0.00040158      -0.00008102       0.00100885       0.00039919      -0.00012947      -0.00031355      -2.20203999
H        4.50612409       5.02478575       5.13919432       0.16705787       0.05589731      -0.23533055      -0.00486581      -0.00449618      -0.00597492      -0.00059691       0.00007660      -0.00098017      -5.63382417
H        6.23483319       4.68934209       5.02128157      -0.29076243      -0.20209632      -0.19675764       0.00066485       0.00051939      -0.00022332       0.00046225       0.00031953       0.00017827      -3.19207491
H        3.58269574       4.80870097       5.65262563       0.17723240      -0.09140887      -0.03108566      -0.00040908       0.00131659       0.00054922       0.00044357       0.00017079       0.00038385      -3.71282699
H        5.19859660       4.21999996       4.87736177      -1.03255790       1.42501853      -1.52339566       0.00201746       0.00105362       0.00006127      -0.00009186       0.00000677       0.00073770      -3.73235748
H        6.08266094       5.74300654       5.44110127      -0.28592693      -0.06674021      -0.19592924       0.00053947       0.00028801       0.00097862       0.00073198       0.00013597      -0.00021175      -3.23027007
H        3.56568201       5.18449780       4.59388755       1.45120016      -0.71299436       0.24295397       0.00168615       0.00094908       0.00111229       0.00051815      -0.00080603      -0.00056437      -3.64191642
H        5.84325428       3.90887300       5.72484671       0.19820635      -0.08151875       0.25851963       0.00027934       0.00037592       0.00001185      -0.00013096      -0.00004304      -0.00008965      -1.75320957
H        3.99571781       4.14361211       4.79296698      -0.17620721      -0.26309855       0.76029500       0.00167366       0.00027982       0.00059556       0.00014401      -0.00019965      -0.00094215      -2.69434177
