20
Lattice="10.0 0.0 0.0 0.0 10.0 0.0 0.0 0.0 10.0" Properties=species:S:1:pos:R:3:forces:R:3:stresses:R:6:energies:R:1 energy=-54.44890922466364 stress="0.008608467638011874 0.004908863755745259 -0.0013614153909888213 0.004908863755745259 0.00999965775600555 0.0010386568487702383 -0.0013614153909888213 0.0010386568487702383 0.014214795416433645" free_energy=-54.44890922466364 pbc="F F F"
H        4.89167896       6.00586807       5.68224678       1.96414921      -1.80168998      -2.89724072      -0.00062359       0.00105746       0.00040990       0.00023809      -0.00120014      -0.00051083      -4.21331216
H        4.41624921       4.06649805       3.93689173       6.38978997      -3.63699519       0.60722627      -0.00180989      -0.00134211       0.00113885      -0.00011769       0.00102573       0.00116887      -2.05485736
H        4.50196619       5.24673835       6.46923203       3.03236881      -1.58313460      -2.35024007       0.00128144      -0.00086800       0.00051188      -0.00093808      -0.00049132       0.00018172      -3.52924193
H        3.51508438       5.61509692       6.80956588       0.72009563       0.86228749      -0.23946805       0.00056452       0.00031942       0.00036072       0.00010956      -0.00021076       0.00050410      -1.67836223
H        5.45442741       5.82746996       6.59484934       0.79261004      -0.66755780      -0.97575852       0.00101343       0.00053085       0.00087078       0.00056682      -0.00099688       0.00009381      -2.66734887
H        5.52033881       5.03274799       5.78245996      -1.12547719       1.91653974       0.41872973       0.00031654       0.00214600       0.00196987       0.00075077      -0.00065313      -0.00044111      -3.94570340
H        4.41857191       6.31452453       6.65147772      -0.89876773       0.23976269      -1.45993019       0.00153362      -0.00057930       0.00104214       0.00039086       0.00014948       0.00034424      -2.57419461
H        5.30455642       5.46556970       4.75235301      -1.45273275      -1.28144229       3.82989833       0.00155936       0.00231273       0.00225943       0.00062434       0.00013776       0.00099756      -4.10999874
H        4.32667239       5.07216504       4.32771152       0.58422237       0.29684934       3.18361223       0.00180073       0.00040355       0.00056791      -0.00107451       0.00046582       0.00019849      -3.53540137
H        3.81737828       5.83581728       5.76133408       1.27575133      -0.49595527       1.59910379       0.00011672       0.00065204       0.00097031       0.00037234       0.00046827      -0.00076143      -3.22569637
H        6.20509723       6.07054276       4.44673426      -1.00563405      -0.80636816       1.46387512       0.00059325       0.00040807       0.00084139      -0.00027822      -0.00043392       0.00030181      -1.66119336
H        2.99570543       6.72542434       3.32079525       0.06518789      -0.12454885       0.09804805       0.00003875       0.00011155       0.00007532      -0.00007676       0.00004186      -0.00005196      -0.02407644
H        4.50903585       5.00946831       5.40785675      -3.32214524       1.51002194      -0.96071122      -0.00130080      -0.00099926      -0.00194514      -0.00037587      -0.00086554      -0.00018412      -4.78466171
H        6.32483326       5.10525833       5.01574541      -1.15035193      -0.49786289      -0.08459870       0.00103387       0.00057289       0.00018118       0.00014265      -0.00003668       0.00037267      -2.35166184
H        3.45241450       5.08461405       5.03822414       1.25045451      -1.33921740      -1.00479359       0.00106759       0.00026972       0.00078665       0.00019584      -0.00003362      -0.00019244      -2.81056144
H        5.12478782       4.27703826       4.86044443      -0.01380410       5.47114615      -1.29248235       0.00206090       0.00305868       0.00197073       0.00035519       0.00163148       0.00057014      -3.05419607
H        6.00506481       6.03217726       5.56310393      -3.14000469      -2.32697171      -0.16338471       0.00143460       0.00086728       0.00207776       0.00024338      -0.00014988       0.00087665      -3.04318801
H        3.42298443       4.40841187       4.12578402      -4.64665904       3.34294368       0.81580510      -0.00201086       0.00010265      -0.00006655       0.00042412       0.00045821       0.00132827      -2.05301055
H        6.65762016       3.31799902       6.36532413      -0.14291153       0.22408556      -0.12197385       0.00009442       0.00019894       0.00007286      -0.00009307       0.00005941      -0.00011393      -0.04228245
H        4.02729417       4.11654763       4.99537655       0.82385850       0.69810751      -0.46571665      -0.00015615       0.00077652       0.00011882      -0.00042110      -0.00072757       0.00022638      -3.08996030
