20
Lattice="10.0 0.0 0.0 0.0 10.0 0.0 0.0 0.0 10.0" Properties=species:S:1:pos:R:3:forces:R:3:stresses:R:6:energies:R:1 energy=-64.3345902293917 stress="0.0013031017652824595 -0.0011077101523006077 0.0013058442980936544 -0.0011077101523006077 -0.0009532726916702532 0.005162763829956412 0.0013058442980936544 0.005162763829956412 0.00025357551207369093" free_energy=-64.3345902293917 pbc="F F F"
H        4.92403659       5.99407052       5.50902719      -0.43542005      -0.25534571      -0.02994510       0.00028792       0.00032781       0.00032400      -0.00085236       0.00039026      -0.00011999      -4.51316638
H        4.72425792       4.53396886       4.19311742       0.88215729       2.57573181      -1.67838945      -0.00056043       0.00027701      -0.00040668       0.00134185      -0.00071530      -0.00017492      -3.05623986
H        4.62960129       5.38934023       6.44260645      -3.43343028       0.15663208       0.86773446      -0.00145020      -0.00123100       0.00008326      -0.00140411       0.00095694      -0.00004561      -3.58785331
H        3.62516980       5.75432264       6.72210049       0.30877969       0.41790242       0.07125984       0.00038796       0.00034714       0.00021251       0.00027375      -0.00027701       0.00035257      -1.74171146
H        5.54458897       5.98967990       6.41064154       0.52574217       0.23535161      -0.38130012       0.00056470       0.00072933       0.00035916       0.00074959      -0.00039458      -0.00078602      -2.70226888
H        5.44916903       4.99085109       5.86869435       1.08335996       1.57447866       2.23969633      -0.00124686      -0.00018480      -0.00194180      -0.00034891       0.00112859      -0.00029285      -4.63112850
H        4.46396441       6.47019495       6.41356916       0.93192161      -0.28371829      -0.52097954       0.00155821      -0.00006438       0.00048989       0.00040131      -0.00019880      -0.00013341      -2.62563830
H        5.29261564       5.24738882       4.82315752      -1.51604990       1.79760560      -6.61421194      -0.00270252      -0.00317439      -0.00258979      -0.00000520      -0.00010051       0.00032844      -4.74069266
H        4.27767090       5.52774426       4.48631225      -1.28277578       0.02520965       1.72647195       0.00121221       0.00181198       0.00200442       0.00115373       0.00056111       0.00032531      -4.03938721
H        3.83152304       5.93390687       5.65401872       1.68805753      -1.37446395      -2.05384960       0.00078860       0.00048505       0.00168023       0.00031128       0.00055920      -0.00070103      -3.48923214
H        6.26022335       5.43577160       4.32243893      -0.48649843       1.11599601       0.96088377       0.00048921       0.00003331       0.00095085       0.00053255      -0.00031572       0.00007699      -1.74056192
H        3.22880241       5.73767500       4.08778408       2.12372371      -1.93986963       2.14166953       0.00100965       0.00091516       0.00119471      -0.00039583       0.00065148      -0.00054389      -1.69755988
H        4.42233443       5.02024416       5.44578215      -1.81098620      -1.25814077       0.15951206      -0.00152003      -0.00227533      -0.00120982       0.00003854      -0.00029833      -0.00018531      -5.11060219
H        6.15769934       4.64690813       5.08809662       1.11842382      -0.04521139       1.15755225      -0.00003229       0.00049875      -0.00044176       0.00109800       0.00001950       0.00036543      -3.15590126
H        3.40089880       5.10887320       5.03213801      -0.53277686       1.27018456      -1.39712137       0.00038880      -0.00007682       0.00122995       0.00010542      -0.00001053       0.00013809      -3.29540116
H        5.11202365       4.23043040       5.15145450       0.09417722      -5.29277783       2.16860842       0.00068565      -0.00158055      -0.00188812       0.00040094      -0.00032600       0.00026880      -3.76235586
H        6.03804483       5.79258345       5.40699870       0.74895125      -0.62078232      -0.78480743       0.00066558       0.00103619       0.00093342       0.00066020      -0.00071898      -0.00073508      -3.17498791
H        3.65525760       4.68410450       4.00724995      -1.63726272       3.69268948      -0.04314525      -0.00032623       0.00069990       0.00024515       0.00114589       0.00004373       0.00053370      -2.64231796
H        5.87781086       3.96794178       5.92541274      -0.45384511       0.11196386       0.01364639       0.00036828       0.00041042       0.00014992      -0.00011845       0.00019540      -0.00027295      -1.74458484
H        3.97606875       4.17397735       4.91691011       2.08375107      -1.90343585       1.99671480       0.00073487       0.00006193      -0.00112592       0.00007458       0.00015538       0.00049399      -2.88299853
