20
Lattice="10.0 0.0 0.0 0.0 10.0 0.0 0.0 0.0 10.0" Properties=species:S:1:pos:R:3:forces:R:3:stresses:R:6:energies:R:1 energy=-69.60150757839213 stress="0.000729853938233284 0.00010254057245000129 -2.402361287199815e-05 0.00010254057245000129 0.0006896310289547995 3.780902216968943e-06 -2.402361287199815e-05 3.780902216968943e-06 0.000490512045177044" free_energy=-69.60150757839213 pbc="F F F"
H        4.86519420       5.98021653       5.49486817       0.07696699      -0.08731065      -0.07149767      -0.00077711       0.00062539      -0.00084949      -0.00077033      -0.00078476      -0.00029455      -4.75637575
H        4.62544275       4.91305488       4.04215769      -0.07247059       0.08517544       0.06360668       0.00145698       0.00043039       0.00006607       0.00012327       0.00004161       0.00022558      -3.25906474
H        4.48108179       5.10828242       6.19187634      -0.10976076       0.17764753       0.00294258       0.00026735      -0.00012018      -0.00028384      -0.00128133       0.00052129       0.00039943      -4.24914641
H        3.40587446       5.30962206       6.38690173       0.05608845       0.07125974       0.00430078       0.00085080       0.00051576       0.00034253       0.00064440       0.00029137       0.00044071      -2.67928323
H        5.32096216       5.79743125       6.46648186       0.01403073       0.00269416      -0.06879111       0.00145530       0.00021182       0.00039385       0.00034683      -0.00066243       0.00004406      -2.74239539
H        5.46169404       5.00838896       5.69297735      -0.02571692      -0.09798750      -0.15454647      -0.00199925      -0.00036910       0.00051125      -0.00027487       0.00003720      -0.00066617      -4.70883274
H        4.21926951       6.14727674       6.39086706      -0.03624350      -0.06458004      -0.01564658       0.00159900      -0.00006929       0.00047502       0.00020763      -0.00007325       0.00044957      -2.73369273
H        5.38879458       5.51106235       4.64165304       0.06025185      -0.04194005       0.21671104      -0.00085765      -0.00012453       0.00114218       0.00004371       0.00075528       0.00000464      -4.73787340
H        4.34532716       5.89179896       4.50338175      -0.00010175      -0.02116697       0.03284137       0.00077003       0.00035958       0.00036540      -0.00006068       0.00020129       0.00022993      -3.39433455
H        3.80347273       5.70961931       5.45460616      -0.02343231      -0.16418537       0.01253036      -0.00153792       0.00037676      -0.00088526      -0.00018908       0.00106028      -0.00062488      -4.64823498
H        6.37580508       5.98498673       4.47199044      -0.10103367      -0.11541461       0.10932726       0.00036151       0.00026313       0.00019412      -0.00013422      -0.00021952       0.00014171      -1.72267821
H        2.83392845       5.19766123       5.39542766       0.05805569      -0.00193789       0.01905572       0.00043534      -0.00026489       0.00098909       0.00023640      -0.00015529      -0.00004187      -2.21736399
H        4.55767655       5.00703113       5.12318065       0.14323397       0.12050195      -0.07229954      -0.00600829      -0.00505478      -0.00608708      -0.00081523      -0.00011890      -0.00056628      -5.60121681
H        6.30095586       4.99035284       4.98256779      -0.15914098       0.01630555      -0.04769058       0.00054995       0.00057038      -0.00002671       0.00053118       0.00014871       0.00014226      -3.19339113
H        3.70481838       4.55420569       5.60342325       0.03536064       0.00544032      -0.01071800      -0.00061830       0.00125861       0.00079584       0.00053784      -0.00000503      -0.00001840      -3.72193449
H        5.36093756       4.39846863       4.72337000       0.00813792       0.20457773       0.02601288       0.00112326       0.00062985       0.00055663       0.00043267       0.00027049       0.00100704      -3.76496389
H        5.97135428       5.95229462       5.51269900      -0.07419349      -0.06772004      -0.07464800       0.00055622       0.00008072       0.00108419       0.00063165      -0.00009355      -0.00017315      -3.23298408
H        3.61489163       5.02808451       4.58226062       0.14974677      -0.13087658      -0.00769861       0.00086935       0.00081000       0.00093904       0.00015086      -0.00083162      -0.00004489      -3.71788555
H        6.01923177       4.06477729       5.55358047       0.03981479       0.00643905       0.03769003       0.00043806       0.00039911       0.00002769      -0.00015026       0.00002551      -0.00010929      -1.76970792
H        4.23504872       4.07536148       4.69323957      -0.03959384       0.10307824      -0.00148214       0.00179522       0.00016090       0.00073998      -0.00020667      -0.00043267      -0.00044294      -2.75014758
