20
Lattice="10.0 0.0 0.0 0.0 10.0 0.0 0.0 0.0 10.0" Properties=species:S:1:pos:R:3:forces:R:3:stresses:R:6:energies:R:1 energy=-15.912032776220723 stress="-0.07125884059883883 -0.0032898329013669276 -0.01351845552726214 -0.0032898329013669276 0.0028236995381483937 0.0009607669616265584 -0.01351845552726214 0.0009607669616265584 0.0027767881760594804" free_energy=-15.912032776220723 pbc="F F F"
H        5.08125044       5.89267544       7.05620078      80.99003933       1.67999044      12.24571503      -0.03482411       0.00031396      -0.00084705      -0.00008253      -0.00640623      -0.00151389       0.09388714
H        3.96206075       3.49008299       4.18690132      -1.91726555      -0.05742163       1.49030228       0.00130829       0.00089205       0.00074143      -0.00055144      -0.00020121      -0.00023623      -1.08900108
H        4.16025305       5.87404366       6.91246838     -78.97293577      -1.57018512     -12.32703645      -0.03616576      -0.00022066      -0.00095679      -0.00014556      -0.00561105      -0.00078169      -0.45456027
H        3.33276257       5.22744269       7.29740318       0.82417997      -0.94823419       0.64084208       0.00035439      -0.00022308      -0.00014954       0.00035298      -0.00028110       0.00027764      -1.13674195
H        6.21528082       5.85308322       7.16527211      -1.67362393      -0.64306864      -1.26011263       0.00093540       0.00020492       0.00056086       0.00031123       0.00037185       0.00015727      -1.05820049
H        5.83950086       5.28714073       6.23829093       4.92360101       1.67161116       2.91097460      -0.00241498       0.00059047       0.00114855       0.00076151      -0.00068586      -0.00033160      -1.32427585
H        3.80709690       6.93275527       6.97653825      -0.17644111      -1.35528672      -0.20223276       0.00063455       0.00078484       0.00007508       0.00007558       0.00006667       0.00003485      -1.16475711
H        5.58454776       5.57432202       3.26134684      -1.41385937       0.81330614      -1.58000052      -0.00094746      -0.00117742      -0.00035375       0.00047022       0.00000986      -0.00077595      -0.98459646
H        2.93089062       4.87763020       4.05801310       0.35756319      -0.53750546       0.09356559       0.00024239       0.00044513       0.00006279      -0.00007757       0.00002628      -0.00020118      -0.58682398
H        3.08221642       6.10124731       6.67759476       0.82777560       1.78850849      -0.62917866       0.00062794      -0.00020410      -0.00019375       0.00051483      -0.00001649       0.00028880      -1.53771408
H        7.26572672       6.87573170       2.94383233      -1.11248521      -0.97295063       0.99783816       0.00044498       0.00039737       0.00048184      -0.00019778      -0.00029619       0.00040693      -0.55859183
H        2.89224939       7.15540890       3.11208687       0.00067062      -0.03953093       0.01641658       0.00000001       0.00004502       0.00000776      -0.00001870       0.00000032      -0.00000076      -0.00609949
H        4.77961492       5.30891476       6.17547449      -6.74257055      -0.72069422      -1.53546867      -0.00282035      -0.00010074      -0.00038696      -0.00031715      -0.00040715      -0.00003984      -1.57132453
H        6.51006703       6.13154668       3.40878075       3.12165221       2.42957030       0.34506552      -0.00048778       0.00029874       0.00047202      -0.00010129      -0.00028537      -0.00004121      -1.09497535
H        3.57245633       2.95002563       6.14617044       0.12007392       0.05402075      -0.66108092       0.00004601       0.00010530       0.00047151      -0.00002114      -0.00005734      -0.00001326      -0.54316686
H        5.31031103       4.67989036       3.82212601      -0.79738868      -2.04857551       1.36560781       0.00026455      -0.00062256      -0.00024030       0.00050008       0.00007960      -0.00001315      -0.58603494
H        6.96042242       7.03869045       4.68779443      -0.16505153      -0.47707783      -0.93253469       0.00007926       0.00021940       0.00074085       0.00027431       0.00006512       0.00011323      -0.16725055
H        2.83209741       3.78155481       4.29426685       2.18995178      -0.69028591       0.17016118       0.00122077       0.00037570       0.00021020      -0.00018391       0.00008176      -0.00044717      -1.07365655
H        6.89844102       2.85728823       6.41065258      -0.01019891       0.02340249      -0.00166006       0.00000540       0.00002843       0.00000014      -0.00000202       0.00000088      -0.00001239      -0.00293906
H        3.87451512       2.74050268       5.07629652      -0.37368703       1.60040703      -1.14718346       0.00023766       0.00067094       0.00093190      -0.00060088       0.00002717      -0.00016023      -1.06520950
