20
Lattice="10.0 0.0 0.0 0.0 10.0 0.0 0.0 0.0 10.0" Properties=species:S:1:pos:R:3:forces:R:3:stresses:R:6:energies:R:1 energy=-35.933423501013216 stress="-0.006633982407120605 -0.009949658439296438 0.002737565975248438 -0.009949658439296438 0.004636065761152824 0.00667528999131902 0.002737565975248438 0.00667528999131902 0.006491211572193061" free_energy=-35.933423501013216 pbc="F F F"
H        5.03222566       5.81610472       5.83389760       2.37204844       7.48821330       0.73387274       0.00101071      -0.00274203       0.00147623       0.00066488      -0.00015013      -0.00204124      -2.14080211
H        4.29453907       3.86274989       4.06633733       0.74266857       3.96078776       3.25347150       0.00051047       0.00219853       0.00183054       0.00054574       0.00006280       0.00030546      -2.02483669
H        4.50130538       5.38740148       6.69523300      -1.68067122       3.04952915       3.42652602      -0.00049427      -0.00029658      -0.00320341      -0.00170100       0.00099412      -0.00131099      -3.40191846
H        3.46258406       5.32470730       7.02104128      -1.05732342      -0.60706161       2.80767395      -0.00027686       0.00048518      -0.00082120       0.00093410       0.00024806       0.00034789      -1.40405282
H        5.04882893       6.05751518       7.35196107       7.12954283      -2.62031979       3.31166342      -0.00239945      -0.00086459      -0.00014780       0.00075642      -0.00180228       0.00092531      -1.24120470
H        5.49334103       4.90862531       6.36327839       1.59692206       2.12043228       2.15029901      -0.00055561       0.00115033       0.00039793       0.00025140      -0.00111116      -0.00074032      -1.76141310
H        4.22573073       6.51532927       6.87966801      -6.87181092      -1.93550969      -6.15260736      -0.00140620       0.00191082       0.00038782       0.00183366      -0.00139093       0.00174046      -1.70518085
H        5.29572498       5.08423679       3.87916985      -2.45145436      -0.99393856       2.85185300       0.00248487       0.00123292       0.00144534      -0.00067759      -0.00082285       0.00105956      -1.74335505
H        4.12509718       5.09380125       4.14454601       4.21093715      -3.54887110       3.85049061       0.00213523       0.00205860       0.00274137      -0.00060031       0.00000590      -0.00095767      -2.31534421
H        3.60736445       5.82867623       6.07678562       5.86919635       3.31662410       0.87915557       0.00278689      -0.00001006      -0.00101150       0.00058024       0.00089850      -0.00062606      -2.34450036
H        6.41106074       6.10706875       3.46697215      -0.33652285      -0.26225763       2.09896094       0.00047595       0.00053093       0.00100452       0.00005621       0.00002245       0.00047035      -1.10628984
H        2.93047743       6.90209313       3.21468906       0.03521717      -0.06745873       0.03943307       0.00001935       0.00006644       0.00002505      -0.00003837       0.00001865      -0.00003279      -0.01033508
H        4.59346955       4.86569221       5.78309484      -3.71992105     -12.13890025      -6.81173176      -0.00426863      -0.00363009      -0.00323967      -0.00117824      -0.00216762      -0.00148902      -3.12390936
H        6.22112153       5.48795383       4.39468678      -0.45477432       1.28826522      -0.00169912       0.00101129       0.00119949       0.00057470      -0.00006017      -0.00016046       0.00078951      -1.63327048
H        3.64596352       5.03879214       5.33647212      -2.03191403      -4.64194647      -8.07352661      -0.00075036       0.00102517       0.00183618       0.00045346      -0.00147633       0.00008704      -2.58601575
H        4.94236925       4.43736144       4.81995615      13.71344624      13.63048400     -12.54016286      -0.00368499      -0.00109661       0.00006776       0.00181798       0.00393276      -0.00412693      -2.38493038
H        6.71869811       6.54348156       4.50113003      -1.36581146      -2.37072407      -1.57430666       0.00039656       0.00108919       0.00080959       0.00039326       0.00023557       0.00060798      -0.98322255
H        3.34854911       4.35083292       4.41317371       2.22958128       0.07745347       3.91743128       0.00114476       0.00043276       0.00164585       0.00040656       0.00127163      -0.00024101      -1.99070076
H        6.80822055       3.08456429       6.41591449      -0.07912092       0.08568096      -0.01915986       0.00006622       0.00007443       0.00001148      -0.00001294       0.00001950      -0.00006444      -0.01453431
H        4.18509033       3.93299005       5.24950341     -17.85023554      -5.83048238       5.85236312      -0.00483992      -0.00017877       0.00066043       0.00225000       0.00410938      -0.00465274      -2.01760668
