20
Lattice="10.0 0.0 0.0 0.0 10.0 0.0 0.0 0.0 10.0" Properties=species:S:1:pos:R:3:forces:R:3:stresses:R:6:energies:R:1 energy=-59.7784371620895 stress="-0.0027029949426932076 -0.005660940367283406 0.004065931021379832 -0.005660940367283406 0.004398883089978407 -3.582062114278226e-05 0.004065931021379832 -3.582062114278226e-05 0.006193605789573124" free_energy=-59.7784371620895 pbc="F F F"
H        4.91549018       6.03588723       5.50108018      -1.27658889       3.47455260       6.25226674       0.00112861      -0.00053885       0.00064191      -0.00150416      -0.00018751      -0.00023367      -4.06227065
H        4.61977573       4.28986678       4.10926584       6.23476106       1.37170302      -3.32991487      -0.00195694       0.00061718      -0.00124513       0.00110742       0.00105823       0.00058187      -2.45279027
H        4.58416743       5.36579940       6.48026848       0.82785678      -0.26085586      -2.59773146      -0.00031133      -0.00007394       0.00104658      -0.00098727      -0.00012817      -0.00030433      -3.61018710
H        3.59688362       5.66833564       6.86002103       0.90718880       1.74019958      -1.16730050       0.00049042       0.00065008       0.00082056      -0.00012593      -0.00035306       0.00081974      -1.62381442
H        5.48898683       5.98748788       6.43590493       1.51083971       1.06522923      -0.96478142       0.00065537      -0.00010551       0.00092809       0.00043901      -0.00077103      -0.00054834      -2.70664057
H        5.46251714       5.05188777       5.84179268       0.87680405      -1.62791974       1.20091246       0.00024882       0.00113534      -0.00015908      -0.00032517      -0.00046697      -0.00172004      -4.59522281
H        4.45439524       6.46255261       6.57051411       0.14039745      -2.76563760      -2.55313102       0.00169093       0.00089754       0.00172461       0.00070062      -0.00078044       0.00021069      -2.46518016
H        5.28513045       5.35017904       4.78508408      -5.79984717      -0.95623345      -4.62477295      -0.00339837      -0.00427661      -0.00246280       0.00025404       0.00254388      -0.00002981      -4.23589252
H        4.24146243       5.29415412       4.38118333       0.80598665       1.43648025       0.52066938       0.00091350       0.00160345       0.00094972      -0.00047704       0.00130169      -0.00064967      -3.77997851
H        3.84254946       5.91669460       5.78916625       0.62140649      -1.64371509      -0.45390081       0.00112402       0.00085107       0.00183996       0.00059407       0.00065235       0.00010232      -3.31852824
H        6.19006577       5.59377247       4.30464919       5.51340280       2.09145528      -3.17226286      -0.00221012      -0.00018745      -0.00039117       0.00054695       0.00112439      -0.00054160      -1.64939427
H        3.38720457       5.99694427       3.90943863       2.13777660      -3.30688359       2.49114782       0.00096743       0.00173673       0.00122229      -0.00096566       0.00064721      -0.00081490      -0.86183928
H        4.44469407       5.06179972       5.44098209      -0.14556279      -1.20957435       0.69896785      -0.00292355      -0.00293358      -0.00140629      -0.00043290      -0.00072877      -0.00046382      -4.90720709
H        6.19040466       4.74770032       5.01859329      -0.41443559       0.19333512       3.71885142       0.00024092       0.00136263       0.00104263       0.00026480      -0.00056290      -0.00033302      -3.07998393
H        3.42195959       5.08050856       5.07480835      -1.95252235       0.97482264      -0.63717231      -0.00071379       0.00141358       0.00170801       0.00093723       0.00029883       0.00010757      -2.87807312
H        5.17145907       4.33408684       5.06051240      -1.06255600      -7.91265641       2.41245240       0.00049036      -0.00268241      -0.00028750      -0.00006300       0.00059177      -0.00090006      -3.80568333
H        6.05914687       5.85483947       5.39008039      -1.65497909      -0.17633094       1.47735351       0.00142476       0.00089984       0.00099574       0.00063619      -0.00082524      -0.00056768      -3.10736684
H        3.55247686       4.46706598       4.08470797      -4.33797749       3.21731137      -0.21686445      -0.00164914       0.00088277       0.00020707       0.00088719      -0.00031800       0.00040013      -2.20099161
H        5.93543681       3.91722035       5.86596248      -2.34097286       5.34857800      -3.41842072       0.00121413       0.00272447       0.00149669      -0.00118334       0.00049711      -0.00090408      -1.49024421
H        4.04755480       4.15319470       5.00349518      -0.59097817      -1.05386007       4.36363178      -0.00012903       0.00042254      -0.00247828      -0.00033885       0.00047258       0.00012776      -2.94714823
