20
Lattice="10.0 0.0 0.0 0.0 10.0 0.0 0.0 0.0 10.0" Properties=species:S:1:pos:R:3:forces:R:3:stresses:R:6:energies:R:1 energy=-66.77775376046391 stress="0.013161610547242629 -0.002983840532363601 -0.00043551548025202216 -0.002983840532363601 -0.004948734597317983 -0.0017743439918947723 -0.00043551548025202216 -0.0017743439918947723 -0.008870425968697129" free_energy=-66.77775376046391 pbc="F F F"
H        5.02314175       5.93264590       5.43093658      -0.62904903       0.58941935       0.17785636      -0.00189382       0.00065607       0.00073805      -0.00015154      -0.00017018       0.00019942      -4.67330809
H        4.57102365       4.66724446       4.19431006      -2.69672808       2.31334488      -3.91189092       0.00021867       0.00087059      -0.00155855       0.00046716      -0.00068022       0.00014130      -3.22228433
H        4.50705192       5.29565330       6.23013536      -2.59650698      -0.14045410       2.82956832       0.00041782      -0.00137317      -0.00135746      -0.00149822       0.00092471       0.00078064      -3.97338862
H        3.46839197       5.64599492       6.41270655       1.45427740       2.88143449       3.20364560       0.00109566      -0.00009777      -0.00100001      -0.00054077      -0.00005403       0.00045097      -2.16516058
H        5.49276026       5.80402757       6.41301870      -1.03720371      -0.40769736      -0.84876324       0.00160622       0.00079164       0.00060798       0.00065718      -0.00036184      -0.00038813      -2.72918588
H        5.39288254       4.89819011       5.74737644       1.88315929       1.72046925       1.10459350      -0.00186941      -0.00083060      -0.00042893      -0.00106639       0.00039223      -0.00035926      -4.71746727
H        4.45939167       6.36919450       6.36648214       1.75871105       0.07347799       0.00748915       0.00216459      -0.00033042       0.00047815       0.00020478      -0.00092218      -0.00020963      -2.53793159
H        5.39210446       5.25650714       4.65615013      -0.97493960       0.43469831       0.31115295       0.00161464      -0.00011226       0.00077260      -0.00070463       0.00013999      -0.00029281      -4.70286686
H        4.32161280       5.78457810       4.48152368       1.65114676      -0.33406760      -2.60679717       0.00346858       0.00066758      -0.00059644       0.00102238       0.00063184      -0.00042984      -3.59886047
H        3.95219069       5.97112127       5.48570087      -0.77589389       0.03071692       1.77121977      -0.00349607      -0.00005470      -0.00298060      -0.00007792      -0.00008505      -0.00094698      -4.23429953
H        6.46714499       5.47979160       4.38069851      -1.47492949       0.87902359       0.66775533       0.00107399      -0.00020380       0.00055669       0.00033625      -0.00052524       0.00007546      -1.69708237
H        3.14643933       5.95111842       4.77071505      -0.18402213       0.11889367       0.34402346       0.00081846      -0.00016417       0.00015018      -0.00136567      -0.00062805      -0.00032163      -2.05206426
H        4.45343653       5.01436054       5.20872469      -1.08461545      -2.02066211      -0.73699033      -0.00041180      -0.00320912      -0.00567990      -0.00020509      -0.00000086      -0.00100218      -5.58017365
H        6.23098321       4.64321587       5.05613314      -0.86663960      -0.82488973      -0.39871666       0.00087540      -0.00096797      -0.00068004       0.00089452       0.00031991      -0.00030268      -3.18183487
H        3.40181952       5.02073177       5.53433226       1.25960991      -2.36532473      -4.73961517       0.00138202       0.00070781       0.00047959      -0.00099864       0.00025622      -0.00057889      -3.40143063
H        5.18989339       4.19700578       4.94712263      -0.39804717      -2.05883842       1.28425757       0.00214801       0.00015315      -0.00120385      -0.00002772      -0.00076816       0.00010163      -3.60410694
H        6.09261725       5.67729591       5.43908371       0.91153423       0.94009773      -0.45784745       0.00009689      -0.00034183       0.00113448       0.00040782      -0.00010226      -0.00001921      -3.24804513
H        3.51621947       4.99888461       4.41680651       3.97641359      -0.94194435       0.97073760       0.00145487      -0.00147368       0.00103826       0.00027398       0.00120274       0.00103704      -3.16631386
H        5.89464323       3.90644972       5.79870985      -1.43986402      -0.21575173      -0.00545059       0.00051393       0.00029830       0.00018158       0.00006261       0.00059026      -0.00047196      -1.72811115
H        3.91801294       4.11596625       4.93684407       1.26358689      -0.67194603       1.03377190       0.00188297       0.00006562       0.00047781       0.00053555      -0.00059536      -0.00044710      -2.56383769
