20
Lattice="10.0 0.0 0.0 0.0 10.0 0.0 0.0 0.0 10.0" Properties=species:S:1:pos:R:3:forces:R:3:stresses:R:6:energies:R:1 energy=-25.52560360799743 stress="0.014539297935437435 0.005390244629822865 -0.005237129762497051 0.005390244629822865 0.004111883926255497 -0.0033824104449097087 -0.005237129762497051 -0.0033824104449097087 0.008815083777774475" free_energy=-25.52560360799743 pbc="F F F"
H        5.17738541       6.11438797       6.61813612      -2.42958263       1.09704117      -0.01593217       0.00074358       0.00027596       0.00006031       0.00020659      -0.00025237      -0.00023804      -2.25705345
H        4.26755233       3.75868776       4.11184028      -0.17334039      -2.93056101       2.22066436       0.00177113      -0.00037150       0.00092084      -0.00057322      -0.00099141       0.00181343      -1.71904404
H        4.19499964       5.76438788       7.02572013      -0.11752298      -3.21649903       0.09005839       0.00096713      -0.00064522       0.00049704       0.00015852      -0.00057775       0.00035626      -2.54639798
H        3.26817881       5.21553230       7.47222309       1.58281520       1.97779145      -1.84697565       0.00087120       0.00086218       0.00066891      -0.00060601      -0.00043504       0.00044156      -1.06003464
H        6.14040609       5.82086580       7.09296617       0.61823713       0.67145858       1.17054566       0.00006517      -0.00027182      -0.00040575      -0.00027275      -0.00024092      -0.00008218      -1.06661390
H        5.70234068       5.17880625       6.31325944      -0.28074703      -1.16313494      -0.95895663      -0.00009913      -0.00033018      -0.00028511      -0.00033317      -0.00040894      -0.00019961      -1.56887510
H        4.02885547       6.84372294       6.92252710      -0.35298223      -1.02476767      -1.03343195       0.00160004       0.00032524       0.00018048       0.00044403      -0.00012000       0.00021587      -1.27021094
H        5.41022336       5.51345249       3.30743366       0.24869826      -0.74547132       1.52235840       0.00077423       0.00081846       0.00052102      -0.00035597      -0.00005874       0.00064098      -1.05783261
H        3.73670696       4.69587798       4.08363692       0.56770911       3.32970266      -0.11440098       0.00104374      -0.00135490       0.00020828      -0.00008408      -0.00013632       0.00090086      -1.37953864
H        3.16886293       6.05142544       6.68457866       2.03245597       0.30666719       1.07871715       0.00104259       0.00105524       0.00045439      -0.00012390       0.00006783       0.00044216      -1.52936278
H        6.96170880       6.67546359       3.13634179      -0.96569795      -0.72470628       2.23696416       0.00037959       0.00034072       0.00110031      -0.00017567      -0.00029742       0.00034666      -1.00339005
H        2.89487681       7.08581369       3.14072593       0.01695576      -0.02618733       0.00854369       0.00001543       0.00002876       0.00000377      -0.00000994       0.00000415      -0.00001621      -0.00253215
H        4.61920423       5.29059794       6.08043122      -1.10817242       1.07459177       1.13312253       0.00045384       0.00062326       0.00088437       0.00053739      -0.00028373      -0.00004020      -1.71632717
H        6.30974059       6.00665798       3.80979266      -1.07493789      -0.98029287      -1.75385582       0.00046758       0.00006720       0.00023733      -0.00043872      -0.00028953       0.00024193      -1.51569670
H        3.48042047       3.29375122       6.04045840       0.09737860       0.22079085      -1.07127912       0.00008729       0.00023373       0.00079931      -0.00005860      -0.00002654       0.00002168      -0.60243304
H        5.03212516       4.65694782       4.00037947      -2.94904342      -0.08546662      -0.48023978       0.00233147       0.00144285       0.00053583      -0.00051646      -0.00042282       0.00099786      -1.35590382
H        6.91180063       6.79469829       4.28762799       0.80724445       0.85732837      -0.83581360      -0.00018150      -0.00036425       0.00073145      -0.00015543      -0.00021669      -0.00027197      -0.98838001
H        3.04583554       3.88505755       4.42671131       2.89232157      -1.15956771       0.28157344       0.00163844       0.00030187       0.00051232      -0.00022487      -0.00012863      -0.00039122      -1.42999806
H        6.87637228       2.91003820       6.40981751      -0.01533875       0.02964150      -0.00126153       0.00000900       0.00003362       0.00000006      -0.00000143       0.00000074      -0.00001740      -0.00440093
H        3.66416543       3.07380464       4.94290307       0.60354965       2.49164123      -1.63040056       0.00055847       0.00104066       0.00118994      -0.00079870      -0.00042298       0.00022783      -1.45157760
