20
Lattice="10.0 0.0 0.0 0.0 10.0 0.0 0.0 0.0 10.0" Properties=species:S:1:pos:R:3:forces:R:3:stresses:R:6:energies:R:1 energy=-15.965201360897467 stress="0.011380413325285466 -0.004299373155435689 0.0005176913959741983 -0.004299373155435689 0.007262108619390564 -0.004791685105339394 0.0005176913959741983 -0.004791685105339394 0.004118968120804397" free_energy=-15.965201360897467 pbc="F F F"
H        5.81005222       6.34872791       6.91501031      -0.22307029       0.65733188       1.55800884       0.00100274      -0.00014456      -0.00040512      -0.00072185       0.00019776       0.00007426      -0.80457787
H        3.90192650       3.40073649       4.21565502      -1.38622297      -0.83658054       1.78502199       0.00089425       0.00098680       0.00095938      -0.00083139      -0.00011917      -0.00014450      -0.96260788
H        3.81915139       5.95554030       6.90199264      -0.30088469       0.80712827      -0.76374740       0.00214742       0.00151578       0.00007203       0.00003900      -0.00007557      -0.00121731      -1.91326969
H        3.13607369       5.08656978       7.09998334      -0.17169399       1.98300998      -0.75469076       0.00064169       0.00115106       0.00013656      -0.00032475       0.00000820      -0.00032398      -1.07383586
H        6.87877068       5.30978917       7.20937118      -2.10529011       0.89650142      -1.36120538       0.00115934       0.00043613       0.00056357      -0.00018971       0.00071365      -0.00048466      -0.39529683
H        5.84014167       5.46127982       6.28513743      -0.10943086      -2.58496295       0.07250208       0.00149166      -0.00087362       0.00017881      -0.00082323       0.00028867       0.00006348      -1.21396834
H        3.30410339       7.02658155       6.80800618       2.03992468      -0.61962263       0.27958277      -0.00002420       0.00056550       0.00001046      -0.00015418       0.00001348      -0.00100503      -0.98256576
H        5.72076138       5.65191244       3.17052618      -1.52021022      -2.16496138       1.06856483      -0.00006155       0.00093719       0.00034254      -0.00057360      -0.00029411       0.00035296      -0.89842247
H        2.66844423       4.88479291       4.06540661       0.14642923       0.12870323      -0.01423937       0.00012801       0.00003334       0.00002499      -0.00001264       0.00000648      -0.00009454      -0.54170297
H        2.68366840       6.12362863       6.75896040       1.16775241      -3.53138082       0.65100551       0.00071258       0.00023449       0.00012266      -0.00034156       0.00020116      -0.00102316      -1.44384017
H        7.31710217       6.93977884       2.77171853       0.72059249       1.06277110      -0.51850704      -0.00016480      -0.00040382      -0.00004482       0.00025027       0.00015466      -0.00027311      -0.52335278
H        2.89722171       7.20282384       3.09191210      -0.00330217      -0.03345841       0.01405140       0.00000038       0.00003878       0.00000684      -0.00001629      -0.00000161       0.00000383      -0.00495613
H        4.77504502       5.25670717       6.68966616      -0.25856977       2.33764401       0.20382212       0.00258380       0.00098350       0.00019677       0.00016986      -0.00046145      -0.00010142      -1.18560626
H        6.72137499       6.12972395       3.21909728      -0.16082639      -0.79301357       0.79296460      -0.00055492      -0.00044900      -0.00004218       0.00028435       0.00016561      -0.00044602      -1.02080637
H        3.60061465       2.77407909       6.23614908       0.02839929       0.07904493      -0.28165258       0.00001786       0.00008447       0.00023940      -0.00002222      -0.00001607      -0.00000428      -0.52930338
H        5.24695544       4.65042448       3.75538523       0.73382515       1.80162567      -1.04428527       0.00047062       0.00113894       0.00038025      -0.00061984      -0.00033676       0.00064228      -0.44744486
H        7.04059476       7.26201182       4.97112837      -0.05663741      -0.13963528      -0.13937775       0.00003377       0.00008691       0.00024725       0.00004265      -0.00001807       0.00004217      -0.04534577
H        2.81523104       3.78391889       4.19083931       1.48514847      -0.94164906       0.26790276       0.00079057       0.00007279       0.00012410      -0.00011409       0.00010806      -0.00031816      -1.04266841
H        6.90858312       2.80755398       6.40334128      -0.00596871       0.04020530       0.00779916       0.00000303       0.00005137       0.00000343       0.00000971       0.00000021      -0.00000790      -0.00418299
H        3.80594516       2.57339666       5.14822426      -0.01996416       1.85129887      -1.82352051       0.00010816       0.00081606       0.00100205      -0.00084217      -0.00001745      -0.00003430      -0.93144658
