20
Lattice="10.0 0.0 0.0 0.0 10.0 0.0 0.0 0.0 10.0" Properties=species:S:1:pos:R:3:forces:R:3:stresses:R:6:energies:R:1 energy=-67.23121915516381 stress="0.00706435047851442 -0.00404748237271812 0.0003180674504063881 -0.00404748237271812 -0.0008293649814527836 0.0012389141204934523 0.0003180674504063881 0.0012389141204934523 -0.0015237013850828813" free_energy=-67.23121915516381 pbc="F F F"
H        5.00954320       5.93333830       5.44086375      -0.53557583       0.54687544       0.07595844      -0.00147942       0.00058751       0.00013341      -0.00040209      -0.00005588       0.00037053      -4.71762905
H        4.59920191       4.67612196       4.16780641      -3.02506210       2.45234042      -1.76844925      -0.00001981       0.00081769      -0.00038173       0.00075152      -0.00078261      -0.00038732      -3.24932298
H        4.51159106       5.28342795       6.24725814      -1.74790786       0.24349810       1.47696291      -0.00005848      -0.00075910      -0.00063548      -0.00120109       0.00089003       0.00084619      -3.95852305
H        3.52480568       5.70611904       6.50049453       0.03849665      -0.49972230      -1.04468599       0.00066305       0.00082291       0.00089495       0.00095476       0.00023912       0.00063415      -2.09725172
H        5.49506349       5.80023423       6.41044516      -0.45227152      -0.03185228      -0.13905263       0.00136291       0.00049363       0.00036209       0.00049928      -0.00048515      -0.00031544      -2.74922975
H        5.39701951       4.90754018       5.74708818       0.69647047       0.48974230       0.69449643      -0.00191342      -0.00121153      -0.00071827      -0.00074110       0.00070302      -0.00027792      -4.74765275
H        4.48492131       6.37184364       6.36626816       1.36327731      -0.61311332      -0.14432859       0.00169697       0.00009094       0.00054110       0.00025230      -0.00073290      -0.00026593      -2.65059183
H        5.37442669       5.25628860       4.67653904      -0.83415926       0.69758170      -0.84098134      -0.00031481      -0.00056549      -0.00036482      -0.00083894       0.00020525      -0.00039872      -4.73075651
H        4.33934634       5.78839790       4.49123618       1.35040777       0.16310074      -0.12153086       0.00312323       0.00067271       0.00058427       0.00101732       0.00018208      -0.00081663      -3.68270090
H        3.93637544       5.94308369       5.51673789       0.46530421       0.40724102      -0.13757472      -0.00306642      -0.00038563      -0.00193543       0.00020252      -0.00036995      -0.00103316      -4.26626650
H        6.41250942       5.49547248       4.36877438      -0.31978818       0.17768558       0.54125812       0.00043816       0.00012574       0.00050870       0.00002925      -0.00033542       0.00006360      -1.72620500
H        3.15764250       5.94861511       4.77006350      -0.08841798       0.25381877       0.22130448       0.00093295      -0.00012319      -0.00010932      -0.00129532      -0.00058951      -0.00022168      -2.05773882
H        4.44631419       5.00265105       5.21486153      -0.29919403      -0.96676230      -1.34300289      -0.00109905      -0.00305827      -0.00343793       0.00006579       0.00038201      -0.00106226      -5.64574291
H        6.20320214       4.62720576       5.03856923       0.26449659       0.08501261       0.13391070       0.00038588       0.00011455      -0.00020657       0.00059537       0.00007097       0.00001017      -3.20357736
H        3.38589457       4.99910618       5.48292297       0.56454618       0.45023017       1.18027851       0.00088219       0.00163224       0.00204345       0.00058698       0.00045224      -0.00062170      -3.25734100
H        5.16929064       4.18518260       4.95508089      -1.37547924      -0.80540727       0.73708164       0.00176030       0.00051289      -0.00093133       0.00017983      -0.00065723       0.00019142      -3.70675329
H        6.09175442       5.68596927       5.43283656       0.31772476       0.24325671      -0.31823424       0.00039896       0.00022781       0.00088424       0.00058557      -0.00005383      -0.00025860      -3.24827843
H        3.54836969       5.01621689       4.38831297       3.79410160      -2.70743683       0.37251577       0.00111777      -0.00131936       0.00062371      -0.00009032       0.00142515       0.00053764      -3.17781433
H        5.84871090       3.89965619       5.80350988      -0.41979697      -0.09165897      -0.10063887       0.00036828       0.00033695       0.00019582      -0.00011504       0.00023965      -0.00019329      -1.74933207
H        3.95577849       4.10350670       4.88784158       0.24282741      -0.49443029       0.52471239       0.00188510       0.00015762       0.00042544       0.00020231      -0.00040896      -0.00084856      -2.60851089
