20
Lattice="10.0 0.0 0.0 0.0 10.0 0.0 0.0 0.0 10.0" Properties=species:S:1:pos:R:3:forces:R:3:stresses:R:6:energies:R:1 energy=-68.81344558253392 stress="0.007655303737209741 -0.00273312450467437 0.0008756824065844212 -0.00273312450467437 0.004472706335907049 -0.002078519822635803 0.0008756824065844212 -0.002078519822635803 0.0018595999608755284" free_energy=-68.81344558253392 pbc="F F F"
H        5.02614645       5.92597803       5.43319025       0.30053724       0.60748388       0.82195527      -0.00086766      -0.00008253      -0.00074708      -0.00081854      -0.00082375       0.00025623      -4.76215333
H        4.60053636       4.74942919       4.11030447      -1.45082291       0.46776507      -0.22971877       0.00167778       0.00145848      -0.00030158      -0.00024625      -0.00011685      -0.00042712      -3.19710477
H        4.42695581       5.22134822       6.19655215       0.08669573       1.60912234      -0.39130120       0.00227015       0.00030279       0.00021471      -0.00131744       0.00032159       0.00019915      -4.13625617
H        3.45294371       5.78616453       6.32255702      -0.26470096      -0.80135657      -1.47402881       0.00115119       0.00018133       0.00107252       0.00038411       0.00050451      -0.00030861      -2.56730455
H        5.42343937       5.74807375       6.44295831      -0.44156804       0.11233253      -0.85710420       0.00182433       0.00001023       0.00075931       0.00013814      -0.00047249       0.00016848      -2.68575934
H        5.39741368       4.90996121       5.73641606      -2.36479341      -1.04217345       0.21615140      -0.00143126      -0.00162417      -0.00005926      -0.00077769       0.00023962      -0.00059860      -4.75284282
H        4.44781573       6.30841978       6.29741957      -0.12713601       0.84427445      -0.65887590       0.00072021      -0.00038384       0.00065710       0.00043397       0.00033271      -0.00009289      -2.77862631
H        5.42912123       5.28124293       4.63345325       2.43268023      -3.61002407       1.95527482      -0.00166090       0.00024298       0.00088193      -0.00047527      -0.00009137       0.00079892      -4.71279623
H        4.53550686       5.86240109       4.43262604      -2.48559452      -0.42707621      -1.94028548      -0.00007049       0.00073798      -0.00001583       0.00031525      -0.00000350       0.00089567      -3.35151612
H        3.93278240       5.96092337       5.34911456       0.49681627      -2.62471296       0.96757843      -0.00095931       0.00157837       0.00041805      -0.00002840       0.00123832      -0.00031560      -4.59359539
H        6.50127402       5.47472404       4.42157064      -0.02449084       0.19366388      -0.39643519       0.00044267       0.00002261       0.00000254      -0.00000167      -0.00017008       0.00005368      -1.71992304
H        2.86391580       5.74241297       5.18889457       0.59767039       0.04041765       1.61342540       0.00055993      -0.00002060       0.00128772       0.00017426       0.00043486      -0.00018797      -2.06542458
H        4.49292596       5.02533160       5.14438682       0.22417521       1.75988349       1.39470041      -0.00318578      -0.00400724      -0.00566051      -0.00102988      -0.00013753      -0.00154871      -5.66483733
H        6.21121679       4.61248550       5.06272877       0.14143676      -0.12433358      -0.26010051       0.00034198       0.00026068      -0.00024604       0.00027285       0.00039200      -0.00016849      -3.20703947
H        3.50287030       4.93285811       5.59991777       1.76829692      -0.82142516      -0.09020452       0.00057364       0.00112485       0.00052614       0.00066503      -0.00007115       0.00032966      -3.71876054
H        5.18069474       4.18910720       4.91980233      -2.66553130       2.24021046      -2.10080905       0.00182350       0.00148169       0.00016336      -0.00030026      -0.00005729       0.00021514      -3.73317615
H        6.10442686       5.67535793       5.44166689       0.14181896       1.05091993       1.16182772       0.00029213      -0.00005890       0.00085288       0.00054077      -0.00010499      -0.00042734      -3.18457392
H        3.59658819       5.21300145       4.52416023       3.89578439      -0.63734509       0.79746097       0.00190736       0.00190562       0.00093562       0.00048762       0.00003558      -0.00021314      -3.62369389
H        5.78699688       3.87456494       5.79518999       0.11853227       0.16888761       0.17430594       0.00031075       0.00049060       0.00005500      -0.00015644      -0.00004050      -0.00010389      -1.75400261
H        3.97819046       4.13619191       4.85460124      -0.37980638       0.99348579      -0.70381674       0.00193507       0.00085179       0.00106302      -0.00033867      -0.00053398      -0.00125769      -2.60405903
