20
Lattice="10.0 0.0 0.0 0.0 10.0 0.0 0.0 0.0 10.0" Properties=species:S:1:pos:R:3:forces:R:3:stresses:R:6:energies:R:1 energy=-29.216915397545336 stress="0.003027187890673353 0.005448380875286314 -0.002113506212737975 0.005448380875286314 0.0018016371248782224 -0.0021343631542893363 -0.002113506212737975 -0.0021343631542893363 0.008313838694557513" free_energy=-29.216915397545336 pbc="F F F"
H        5.06695205       6.16278702       6.39799749       4.16299994      -2.38671514      -1.47531314      -0.00197601      -0.00127451       0.00019817      -0.00037054       0.00087540       0.00210913      -2.47263930
H        4.31595067       3.77218124       4.05925033      -1.11910504      -2.25638745      -0.54457245       0.00068133      -0.00177311      -0.00016221       0.00033134      -0.00044740      -0.00018684      -1.90466185
H        4.32720118       5.57403238       7.01431275       4.30375261       1.50233643      -4.18182060       0.00109918       0.00072978       0.00133322       0.00038067       0.00000804      -0.00066037      -2.78651005
H        3.39197948       5.18446981       7.41988108      -1.65490661       0.20486121      -0.54383804      -0.00066337       0.00040462       0.00054276      -0.00024515       0.00021018      -0.00025394      -1.10062405
H        5.79483566       5.92033396       7.23535892      -1.70356044       0.59513074      -0.17670850       0.00125569      -0.00011420       0.00007173      -0.00027896       0.00038651       0.00001592      -1.22178985
H        5.56342790       5.18731540       6.43854756      -1.09276175      -1.93721339      -0.20384881       0.00093959      -0.00088132       0.00007477      -0.00007861      -0.00046360       0.00000915      -1.75636179
H        4.17323245       6.65797626       6.67563468      -4.25310617       1.89017386       2.12865651      -0.00254405       0.00020021      -0.00000066      -0.00056309       0.00069627       0.00081878      -1.60207892
H        5.36888200       5.31501221       3.43678038      -0.67561999      -1.13548325       2.10236966       0.00099604       0.00085256       0.00089868      -0.00061499      -0.00043358       0.00076636      -1.15651262
H        3.94943624       4.79284812       4.08190276      -2.93625052       3.25240951      -0.17714506      -0.00105517      -0.00109467       0.00047625      -0.00023830      -0.00043698       0.00096292      -1.68368651
H        3.35495142       5.92864615       6.54307749       1.11003114      -2.36982426       0.56731032       0.00092758       0.00031651       0.00067465      -0.00025757      -0.00018634      -0.00069898      -1.71553352
H        6.73171957       6.44909846       3.24479534      -1.21027150      -1.80416858      -1.64514309       0.00036897       0.00034318      -0.00100877      -0.00072778      -0.00042122       0.00036461      -1.01828855
H        2.90802555       7.01549887       3.16877073       0.01122562      -0.02395849       0.00984287       0.00000585       0.00002663       0.00000449      -0.00001094       0.00000513      -0.00001248      -0.00344030
H        4.58028584       5.26699969       5.89523597      -1.16838900       1.54558269       2.67991046       0.00116737       0.00124466       0.00231310       0.00111238      -0.00043704      -0.00005935      -1.93392517
H        6.21543287       5.77334091       4.02958159       0.69493649       1.55915378      -0.68285790       0.00086519       0.00116512       0.00059753      -0.00017179      -0.00014527       0.00093793      -1.55286491
H        3.37216746       3.92990806       5.72956601       0.34708249       0.82677213      -2.23724905       0.00034764       0.00050153       0.00164984      -0.00003973      -0.00001428       0.00020569      -1.14573501
H        4.99691119       4.60444087       4.31126680       3.73200486       1.92748603      -0.08595790      -0.00080457       0.00049574       0.00106534      -0.00059066      -0.00092862       0.00058496      -1.68334132
H        6.83118685       6.72278098       4.29272128      -0.66816360      -0.66737918       2.30501186       0.00031276       0.00057559      -0.00131461      -0.00018271      -0.00001475       0.00042343      -0.97319587
H        3.21685299       4.10095598       4.57162668       2.08852454      -0.20341767       0.72757176       0.00126312      -0.00008703       0.00135661       0.00016337      -0.00047435      -0.00007129      -1.89230299
H        6.85096056       2.97342327       6.41086681      -0.01656962       0.02849120       0.00035623       0.00001067       0.00003154       0.00000000       0.00000039      -0.00000023      -0.00001834      -0.00432040
H        3.88136966       3.29792810       4.95033625       0.04814655      -0.54785018       1.43342487      -0.00017061       0.00013883      -0.00045707       0.00024831       0.00010863       0.00021110      -1.60910243
