20
Lattice="10.0 0.0 0.0 0.0 10.0 0.0 0.0 0.0 10.0" Properties=species:S:1:pos:R:3:forces:R:3:stresses:R:6:energies:R:1 energy=-27.242316756224994 stress="0.0027196344425946743 0.00029531906210463236 -0.004375485435819964 0.00029531906210463236 0.004527959568990736 -0.0019216916927594957 -0.004375485435819964 -0.0019216916927594957 0.007580170061758077" free_energy=-27.242316756224994 pbc="F F F"
H        5.08333072       6.19982491       6.56241244       4.98126237      -4.72673902      -1.29566175      -0.00188178      -0.00002655       0.00014108      -0.00008239       0.00029142       0.00147298      -2.45267507
H        4.31187912       3.77263026       4.10497970      -5.97929655      -2.09359029       1.87074164       0.00064997      -0.00017349       0.00073742      -0.00027770      -0.00068149      -0.00132885      -1.90729330
H        4.23584272       5.64525772       7.07079284       2.25102351      -1.89639882      -1.12394789       0.00088725      -0.00005434       0.00105470       0.00035865      -0.00106203       0.00042657      -2.58992805
H        3.28204487       5.16508396       7.49465837       1.29610681       1.02432364      -1.09449661       0.00069675       0.00046145       0.00042075      -0.00030083      -0.00037922       0.00035416      -1.07395060
H        5.99912346       5.92286462       7.14666075      -0.48126858       0.30945930       0.32362421       0.00058418      -0.00008701      -0.00011075      -0.00012587       0.00005466      -0.00000053      -1.11719651
H        5.66040946       5.23821464       6.33889084       0.15766765       0.49338126       0.41240790      -0.00014233       0.00040429      -0.00001149       0.00002581      -0.00062059      -0.00041460      -1.60960835
H        4.16225804       6.69962724       6.72577357      -6.70297930       1.59521146       0.51057796      -0.00165351      -0.00002623       0.00004947       0.00003783       0.00036883       0.00175452      -1.56441805
H        5.34008917       5.42331566       3.41023342      -2.68491209      -1.60468814      -0.76548417      -0.00041327      -0.00002220      -0.00004928      -0.00043954      -0.00070128      -0.00023222      -1.12888534
H        3.88631847       4.84458463       4.09596710       1.72494718      -2.24891453       0.36511790       0.00146198       0.00130713       0.00035877      -0.00028805      -0.00021588      -0.00002763      -1.61636448
H        3.25003561       5.96550680       6.69524288       1.04545823       0.92696768      -0.39500638       0.00072147       0.00061444       0.00017107       0.00006336      -0.00040959       0.00055788      -1.60301445
H        6.82860440       6.54607831       3.15250985       0.31124650       0.58455215       1.16970791       0.00000564      -0.00003284       0.00079390       0.00029007       0.00015263      -0.00002784      -1.01142282
H        2.89882854       7.05961637       3.15114815       0.02135740      -0.03190224       0.01177855       0.00001794       0.00003336       0.00000519      -0.00001273       0.00000660      -0.00002071      -0.00396157
H        4.61697367       5.32678184       6.00471402      -2.63963783       1.88123629       2.07238618       0.00006000       0.00100797       0.00165346       0.00091556      -0.00071122      -0.00006114      -1.78649957
H        6.20045425       5.93460816       3.83057280       1.28116316       0.25847059       1.62289873      -0.00108936      -0.00045706      -0.00041914      -0.00025647      -0.00045067      -0.00069613      -1.52461535
H        3.45033157       3.47451244       5.94584884      -0.24644326       0.75322619       0.06901583       0.00005564       0.00024534       0.00029806      -0.00029541       0.00015407       0.00010178      -0.65976542
H        5.01265919       4.58932794       4.09107142       1.32586332       3.72480294       0.09491822       0.00023550      -0.00086473       0.00027013      -0.00005028      -0.00012714      -0.00094868      -1.57869816
H        6.83707178       6.71470330       4.30799760       0.17464510       0.01601269      -1.49955401      -0.00001531      -0.00005412       0.00097332       0.00007524      -0.00004542      -0.00004443      -0.99094110
H        3.17054880       4.01734839       4.42546812       4.18096016      -1.37222833       0.62014315       0.00201428       0.00107883       0.00088747      -0.00058096      -0.00010274      -0.00042975      -1.51688940
H        6.86672173       2.93363415       6.40996719      -0.01368257       0.02613966      -0.00080618       0.00000825       0.00003012       0.00000003      -0.00000093       0.00000049      -0.00001577      -0.00368134
H        3.79823604       3.15645642       4.94260101      -0.00348120       2.38067751      -2.96836120       0.00051634       0.00114362       0.00035602      -0.00097707       0.00010310      -0.00012429      -1.50250782
