20
Lattice="10.0 0.0 0.0 0.0 10.0 0.0 0.0 0.0 10.0" Properties=species:S:1:pos:R:3:forces:R:3:stresses:R:6:energies:R:1 energy=-27.158704601704322 stress="0.009961353105351123 -0.0016992296232889773 -0.00440097121220251 -0.0016992296232889773 0.003469615369263717 0.0005961769468362237 -0.00440097121220251 0.0005961769468362237 0.007342765504791398" free_energy=-27.158704601704322 pbc="F F F"
H        5.10280880       6.16193142       6.58809689      -0.73466456       0.38552229      -0.87380090       0.00028628       0.00044099      -0.00007555       0.00034188      -0.00014665      -0.00053389      -2.52115549
H        4.32011089       3.76349926       4.10632683      -3.73523140      -0.47910528       2.18274896       0.00151055       0.00060778       0.00086974      -0.00041706      -0.00080063      -0.00014186      -1.92626343
H        4.22305734       5.68159345       7.05502765       0.76173178      -4.22316516       0.25592119       0.00029780      -0.00091032       0.00075610       0.00065906      -0.00079929       0.00022724      -2.55255391
H        3.26714175       5.19022479       7.49243857       1.57898801       1.29179962      -1.31894898       0.00083699       0.00055320       0.00047971      -0.00037677      -0.00044360       0.00042888      -1.06636516
H        6.03719329       5.89526148       7.12712704       0.18848107       0.24857523       0.73944718       0.00026294      -0.00014066      -0.00023531      -0.00011407      -0.00012346       0.00004164      -1.10125342
H        5.67991686       5.21568472       6.32560415      -0.26730844       0.26443840       0.05065639       0.00003842       0.00028854      -0.00002482      -0.00002263      -0.00049510      -0.00038800      -1.59711605
H        4.13051261       6.74047250       6.79259058      -0.31595669      -0.55467928      -1.02109829       0.00135803       0.00010979       0.00010289       0.00049455      -0.00015576       0.00019261      -1.59333003
H        5.31937908       5.44913051       3.39783499      -0.51998858       0.80100431      -1.15332445       0.00012889      -0.00038651      -0.00027547       0.00024462      -0.00017236      -0.00005820      -1.12482183
H        3.86159259       4.79986302       4.10097921       3.65326120       0.38617151      -0.44589866       0.00115367       0.00012958       0.00022238       0.00002509       0.00002292      -0.00055992      -1.58974829
H        3.23145736       5.99466266       6.69315189       0.84202767       0.90127799      -0.16492511       0.00059020       0.00065384       0.00018808       0.00005098      -0.00034513       0.00057151      -1.58537514
H        6.85319480       6.56871289       3.13813725      -0.17707720       0.12971344       1.89518756       0.00014924       0.00010218       0.00109741       0.00013463      -0.00002103       0.00011010      -1.00155854
H        2.89749355       7.06678476       3.14830741       0.02058205      -0.03009780       0.01071744       0.00001784       0.00003176       0.00000471      -0.00001178       0.00000598      -0.00001980      -0.00359528
H        4.62184405       5.31855697       6.01780403      -2.13629221       1.33596723       1.79490918       0.00027390       0.00073915       0.00145504       0.00074611      -0.00060714      -0.00014859      -1.76061261
H        6.20785440       5.95705542       3.82177359       0.13900741      -0.26359468       0.26984206      -0.00026075      -0.00005661      -0.00007875      -0.00022182      -0.00028612      -0.00013347      -1.55025823
H        3.45716638       3.42035286       5.97754970      -0.03692996       0.50716930      -0.35024877       0.00007872       0.00025277       0.00046278      -0.00018773       0.00004379       0.00006350      -0.63646896
H        5.02787183       4.62102048       4.05725159      -2.02953042      -0.36159886       1.31364849       0.00131786      -0.00040749      -0.00012755       0.00042761       0.00000952      -0.00023713      -1.57797446
H        6.85231343       6.72644060       4.30479551       0.21647165       0.03238277      -1.67367533      -0.00002599      -0.00006371       0.00108851       0.00007380      -0.00006015      -0.00005573      -0.98098572
H        3.17379168       4.00150334       4.41166511       2.33196306      -3.17431064       1.23296328       0.00135481       0.00025261       0.00066010      -0.00025199       0.00012914      -0.00103645      -1.50176162
H        6.86941440       2.92719092       6.40995341      -0.01441880       0.02774057      -0.00102246       0.00000858       0.00003174       0.00000004      -0.00000117       0.00000061      -0.00001650      -0.00401001
H        3.75764652       3.13003569       4.94109549       0.23488434       2.77478905      -2.74309876       0.00058337       0.00124099       0.00077273      -0.00099715      -0.00015651      -0.00000517      -1.48349642
