20
Lattice="10.0 0.0 0.0 0.0 10.0 0.0 0.0 0.0 10.0" Properties=species:S:1:pos:R:3:forces:R:3:stresses:R:6:energies:R:1 energy=-65.18784538323769 stress="-0.004522161854143246 -0.0027868011781474696 -0.0004366141136502312 -0.0027868011781474696 -0.0006379365376176682 0.0009537882589381841 -0.0004366141136502312 0.0009537882589381841 -0.0046440351422746134" free_energy=-65.18784538323769 pbc="F F F"
H        4.92332459       5.95417485       5.48130674      -0.09612335      -0.04148274       0.95643599       0.00067615      -0.00003431      -0.00086307      -0.00163862       0.00054691       0.00023152      -4.67880432
H        4.71442598       4.59632107       4.17564113       2.44287009       0.08917586      -2.92162598      -0.00308014      -0.00036781      -0.00052915       0.00063204      -0.00110850      -0.00153597      -2.92432692
H        4.63094227       5.38866204       6.43478213      -3.16543274       1.38966903       1.92462916      -0.00118214      -0.00116612      -0.00018941      -0.00157671       0.00088375       0.00000316      -3.54910187
H        3.63245602       5.80475935       6.67489101       0.10611524      -0.15219812       0.40732443       0.00035773       0.00025882       0.00006765       0.00041553      -0.00024973       0.00012624      -1.77288789
H        5.56028641       5.97575000       6.37274994      -0.05107959      -0.12560481      -0.53117304       0.00077409       0.00092800       0.00038540       0.00074916      -0.00031018      -0.00066651      -2.70921897
H        5.43401648       4.96228519       5.85999319       0.40107815       1.03684384       0.97207577      -0.00179986      -0.00014153      -0.00134938      -0.00013600       0.00154682       0.00001862      -4.65420585
H        4.48456646       6.47364375       6.35124569       0.75067248      -0.05166630      -0.15511393       0.00138179      -0.00001187       0.00022699       0.00036518       0.00020983      -0.00017318      -2.64680380
H        5.29597694       5.22248794       4.80219320      -0.52252109       0.28797792      -1.86035208      -0.00260707      -0.00355960      -0.00303422      -0.00224347      -0.00164891      -0.00029080      -4.67976267
H        4.27702934       5.60394431       4.59832673       1.22671703      -1.65429516      -0.12050432       0.00007649       0.00181261       0.00078877       0.00159776      -0.00028469       0.00043552      -4.33777208
H        3.82354066       5.93983004       5.60236741       2.71659977      -1.44579632      -2.07157015       0.00111475       0.00078024       0.00141320       0.00013280       0.00085641      -0.00107652      -3.72423615
H        6.28557343       5.39138241       4.33884275      -0.21926651       0.05940870      -0.02722333       0.00044949       0.00014634       0.00032458       0.00005036      -0.00017441       0.00014278      -1.76368466
H        3.26435943       5.84663094       4.26107855      -0.43399950      -0.43685389       0.69020229      -0.00026413       0.00057135       0.00097596       0.00016772       0.00026108      -0.00017521      -1.83386696
H        4.40513611       4.97429605       5.46764283       0.03875561      -0.60789356      -1.10186347      -0.00057847      -0.00135508      -0.00136743       0.00015143      -0.00148614      -0.00024299      -5.11819257
H        6.13679526       4.58975917       5.09955895       1.19758074       0.35323936      -0.02569093       0.00001247       0.00059876      -0.00036644       0.00062251       0.00023839       0.00027495      -3.19367372
H        3.38906170       5.07843073       5.06212162      -0.52455981       0.28342434      -0.21143275       0.00038073      -0.00049331       0.00013439       0.00002333      -0.00035076       0.00025656      -3.31016784
H        5.08860594       4.18737450       5.12886142       0.42047637      -1.29672954       0.74761587       0.00054728       0.00004882      -0.00030252       0.00021892       0.00017992       0.00022291      -3.83188194
H        6.05829020       5.72251539       5.38561836       0.61037362       1.15707779       1.29684057       0.00069510       0.00060319      -0.00020403       0.00025546      -0.00069497      -0.00102760      -3.18642015
H        3.67900802       4.81606125       4.01610533      -3.86060339       3.59051133      -0.31522909      -0.00171155       0.00038547       0.00030676       0.00093318       0.00016431       0.00084848      -2.65612313
H        5.82026016       3.93118161       5.94327441      -0.44730161      -0.13435315      -0.24526256       0.00041333       0.00025277       0.00027019      -0.00017328       0.00023673      -0.00020683      -1.74885847
H        3.98810622       4.17048714       4.85090950      -0.59035151      -2.30045455       2.59191755      -0.00017819       0.00010530      -0.00133226       0.00040648       0.00074751       0.00004805      -2.86785541
