20
Lattice="10.0 0.0 0.0 0.0 10.0 0.0 0.0 0.0 10.0" Properties=species:S:1:pos:R:3:forces:R:3:stresses:R:6:energies:R:1 energy=-20.619114445355976 stress="0.006674291095329564 0.0002471988747144286 6.271192877049805e-05 0.0002471988747144286 0.0035959460886458394 -0.0007046683430346238 6.271192877049805e-05 -0.0007046683430346238 0.005491358917257841" free_energy=-20.619114445355976 pbc="F F F"
H        5.23416796       5.94232801       6.92383149      -2.18561984       1.18786994       0.71157312       0.00082506      -0.00026545      -0.00011120      -0.00027990       0.00044875       0.00032324      -2.07137323
H        3.97122939       3.49481996       4.18063858      -2.00252723      -0.04251210       1.58119420       0.00137193       0.00097429       0.00078191      -0.00058940      -0.00023882      -0.00021687      -1.09449118
H        4.10159299       5.90004392       6.94901870       3.79051324       0.31623593      -0.58270721      -0.00065549      -0.00078950      -0.00010458       0.00029178       0.00006414      -0.00035070      -2.51314521
H        3.33195498       5.20866427       7.30608264      -0.75678469      -1.55348180       0.65539743      -0.00022122      -0.00041433      -0.00003372       0.00033365      -0.00001398      -0.00028962      -1.11153029
H        6.33079121       5.75819490       7.12144933      -0.28722952       0.38067256       0.28836049       0.00035537      -0.00007360      -0.00011299      -0.00012863      -0.00000933      -0.00010907      -1.03681836
H        5.77818089       5.19395836       6.33877654      -0.85695895      -1.46186973      -1.76436376       0.00061358      -0.00051626      -0.00040610      -0.00053975       0.00022422       0.00007616      -1.51678382
H        3.82100106       6.97586201       6.97169989      -1.01044508      -1.41236141      -0.37542413       0.00079638       0.00074282       0.00008145       0.00016634       0.00008034       0.00041090      -1.10434962
H        5.60677757       5.59237893       3.25534436      -1.16522603      -1.09427700       0.11168074      -0.00033384       0.00016514       0.00009888      -0.00022397      -0.00017838      -0.00010259      -1.01792021
H        2.96829062       4.87457731       4.05778318       0.41517267      -0.36162534       0.05144710       0.00026237       0.00035384       0.00006077      -0.00005401       0.00003073      -0.00022768      -0.59617906
H        3.04004257       6.12668725       6.75133799       0.12272354       2.05261872      -0.32159785       0.00008678       0.00032486      -0.00003730       0.00037125      -0.00010360       0.00064895      -1.51073742
H        7.24396231       6.88047094       2.98251818      -0.59189209      -0.41401474       0.93791103       0.00023151       0.00019360       0.00059985      -0.00006770      -0.00020341       0.00019330      -0.61078808
H        2.89277944       7.15237851       3.11327808       0.00130911      -0.03948941       0.01637454       0.00000005       0.00004497       0.00000773      -0.00001865       0.00000062      -0.00000149      -0.00609244
H        4.65713949       5.36935834       6.12936573       1.18332796       0.37643442       1.23866828       0.00141573       0.00035781       0.00057958       0.00026086       0.00008195      -0.00008775      -1.64650411
H        6.53486315       6.14692043       3.47736447       1.70153035       1.66295006       1.07197152      -0.00020963       0.00040429       0.00061794       0.00024641      -0.00001943       0.00009280      -1.20140849
H        3.56562940       2.96456220       6.15179516       0.22101651      -0.03151525      -1.05736704       0.00005886       0.00011884       0.00068890       0.00002850      -0.00011358      -0.00002625      -0.54006050
H        5.27295467       4.67119167       3.82997850      -0.05240573       0.45210722      -0.21222210       0.00041854       0.00054811       0.00020597      -0.00021587      -0.00015145       0.00037188      -0.60692595
H        6.94733227       6.99318691       4.59073974      -0.31294475      -0.89717847      -1.71173954       0.00013125       0.00038639       0.00116087       0.00048407       0.00012921       0.00019614      -0.29038174
H        2.83905601       3.78612131       4.29558003       2.24319491      -0.94882585       0.22052955       0.00125894       0.00027493       0.00021465      -0.00016660       0.00008007      -0.00047517      -1.07713969
H        6.89748439       2.85666138       6.40948480      -0.01307992       0.02731312      -0.00082628       0.00000732       0.00003192       0.00000003      -0.00000097       0.00000046      -0.00001529      -0.00382679
H        3.85653123       2.74161112       5.07144348      -0.44367446       1.80094914      -0.85886010       0.00026079       0.00073326       0.00119871      -0.00060207      -0.00004578      -0.00016369      -1.06265824
