20
Lattice="10.0 0.0 0.0 0.0 10.0 0.0 0.0 0.0 10.0" Properties=species:S:1:pos:R:3:forces:R:3:stresses:R:6:energies:R:1 energy=-69.41228539807497 stress="0.0021509844352029135 -0.0017682096539011467 -0.0003177293951881442 -0.0017682096539011467 0.002839940352021855 -0.001068202589084191 -0.0003177293951881442 -0.001068202589084191 -0.0011496596088308032" free_energy=-69.41228539807497 pbc="F F F"
H        4.97471653       5.96899985       5.42669679       0.02532068       0.08180256       0.09317044      -0.00069033       0.00047587      -0.00059570      -0.00096910      -0.00073656      -0.00014019      -4.72742176
H        4.63413709       4.79918575       4.07971222      -1.56879139       1.04067302      -0.72418325       0.00160591       0.00059229      -0.00033475       0.00024669      -0.00024025      -0.00041870      -3.19916954
H        4.45840913       5.20128174       6.18851735      -0.85860880       1.57135727       0.59319754       0.00026135       0.00010114      -0.00025305      -0.00151036       0.00047259       0.00033538      -4.19714288
H        3.43539135       5.61244546       6.34534775      -0.14060072      -0.32648173      -0.09943141       0.00088834       0.00034300       0.00029637       0.00058652       0.00031761       0.00019800      -2.70412462
H        5.38677550       5.79059669       6.41945438       0.12143377       0.04000550       0.21966484       0.00132245       0.00014366       0.00021730       0.00036092      -0.00053041      -0.00005753      -2.76200508
H        5.41106152       4.93310101       5.71876736       0.44858833       0.16581055      -0.00027134      -0.00231784      -0.00057427      -0.00003998      -0.00077628       0.00017405      -0.00044844      -4.71726713
H        4.36151753       6.28700884       6.30264774       0.13441878      -0.05812748       0.04495913       0.00126304       0.00000569       0.00034286       0.00030480      -0.00007311       0.00005399      -2.77253558
H        5.43016303       5.35926008       4.63081697       0.37586417      -1.44348933       0.91383848      -0.00113874       0.00050001       0.00096329      -0.00038814       0.00033431       0.00034504      -4.72431564
H        4.45546705       5.86359623       4.42627618       0.05273474       0.17685097       0.00483232       0.00077338       0.00033968       0.00064707       0.00032759       0.00010358       0.00010167      -3.37919396
H        3.88173390       5.87983598       5.38639590       0.67230823      -1.33328800      -0.39744279      -0.00129359       0.00095423      -0.00044759      -0.00056104       0.00086077      -0.00042807      -4.61283346
H        6.48471053       5.65591507       4.45341599      -0.13030050      -0.12498771      -0.08880888       0.00044249       0.00019494       0.00009481      -0.00011200      -0.00020716       0.00011729      -1.71996003
H        2.84335031       5.51979204       5.36440776       0.15763456      -0.01137972       0.04037253       0.00045041      -0.00017997       0.00092791       0.00034417      -0.00008006      -0.00015707      -2.21428842
H        4.51930829       5.03283368       5.13124267      -0.44086731      -0.37950138      -0.36129672      -0.00504666      -0.00499822      -0.00616460      -0.00061910      -0.00008654      -0.00079089      -5.62320893
H        6.23917714       4.72431498       5.02505244       0.24938140       0.22408296       0.14349493       0.00040735       0.00056713      -0.00011108       0.00052012       0.00015632       0.00011180      -3.19944268
H        3.59896725       4.75968712       5.62504982      -0.01893857       0.31929720      -0.02894861      -0.00057498       0.00136477       0.00063291       0.00037673       0.00004855       0.00032797      -3.71975485
H        5.22578747       4.24742305       4.85645019      -0.79109695       1.11534808      -1.01800885       0.00157186       0.00111468       0.00005026      -0.00004375      -0.00001966       0.00075535      -3.75585763
H        6.06395502       5.76825324       5.47804044      -0.12653853      -0.08442823       0.06795687       0.00049188       0.00031896       0.00078697       0.00069979       0.00006885      -0.00029229      -3.23654521
H        3.58236333       5.16625909       4.57143284       1.78788513      -0.87489686       0.33255442       0.00168975       0.00088456       0.00116112       0.00034662      -0.00070108      -0.00046832      -3.65590280
H        5.86086282       3.92137101       5.71100960      -0.02986533       0.13672657       0.02112768       0.00036029       0.00045758       0.00009939      -0.00016276       0.00003349      -0.00013832      -1.75494017
H        4.04390681       4.13881682       4.76677659       0.08003830      -0.23537422       0.24322265       0.00168463       0.00023421       0.00057682      -0.00003963      -0.00021302      -0.00077489      -2.73637502
