20
Lattice="10.0 0.0 0.0 0.0 10.0 0.0 0.0 0.0 10.0" Properties=species:S:1:pos:R:3:forces:R:3:stresses:R:6:energies:R:1 energy=-45.33201411280303 stress="0.00892272639389129 0.0022217883800104347 -0.0027810702706218492 0.0022217883800104347 0.0057455834865077155 0.0005081169652908869 -0.0027810702706218492 0.0005081169652908869 0.007504211203505254" free_energy=-45.33201411280303 pbc="F F F"
H        4.97737077       5.97771777       5.80816475      -4.28978811       0.23237510       1.33645408       0.00248663      -0.00000762       0.00168154      -0.00003461      -0.00169391       0.00049784      -2.79130905
H        4.35534874       4.11440899       3.98095706       4.91642622      -1.62242998      -2.13867167      -0.00186501      -0.00016135      -0.00044169      -0.00008982       0.00050981       0.00115603      -2.18727971
H        4.48244551       5.20688506       6.64341113      -1.70993526       1.23491800      -1.21553865      -0.00028484       0.00055125       0.00042288      -0.00084697      -0.00009965      -0.00030010      -3.48214764
H        3.44969830       5.39790928       7.02886766       1.06863838       0.78043193      -0.38211655       0.00064604       0.00046319       0.00034341       0.00008545      -0.00024449       0.00037661      -1.65325810
H        5.26302747       5.93775672       6.87573737       0.03041848       0.23157906      -0.08747306       0.00070059       0.00023045       0.00016563       0.00047432      -0.00017575      -0.00068475      -2.12422468
H        5.47548816       5.05173420       6.15968280       2.53788123       0.41497235       1.16770699      -0.00063481       0.00055452       0.00102289       0.00069851      -0.00080682      -0.00002369      -2.34313965
H        4.16149458       6.28071503       6.83735000       2.67575610      -2.29781898      -0.81781749       0.00152023       0.00104430       0.00066738       0.00019482      -0.00098096      -0.00045404      -2.33683138
H        5.37535203       5.25697563       4.20612198      -0.77176706       0.27217399       1.41474684       0.00214029       0.00065668       0.00116780       0.00020518      -0.00029546       0.00086573      -2.44338939
H        4.26950841       5.10557693       4.46608825       4.06309011       0.12624319       2.03800283       0.00036176       0.00047471       0.00109014      -0.00050562       0.00067557      -0.00010702      -3.63930176
H        3.70934214       5.72705863       5.99660440       5.48643762       0.16664443       0.14913399       0.00253879      -0.00006393      -0.00090567      -0.00067039      -0.00094937      -0.00107131      -2.92823718
H        6.21534489       5.94556366       3.86712471      -0.77709681       0.32409608       0.20784635       0.00042692       0.00007549       0.00014515       0.00026377      -0.00019027       0.00041110      -1.53623563
H        2.95589450       6.83057958       3.25409067       0.03147952      -0.07424858       0.04925843       0.00001645       0.00007379       0.00003448      -0.00004678       0.00001998      -0.00002897      -0.01264250
H        4.56787719       4.98984513       5.57044187      -7.31811224      -0.90348502      -5.49875243       0.00098555       0.00028745       0.00080709       0.00028266      -0.00068243      -0.00063104      -4.20380449
H        6.40223287       5.23727454       4.69620616      -1.77285918       0.15773662       1.33322847       0.00137152       0.00076228       0.00021032       0.00037569      -0.00025838       0.00045547      -1.74332249
H        3.46123774       5.04501649       5.19954871      -0.80605774      -1.36041068      -0.84949243       0.00069323      -0.00125244      -0.00040845      -0.00058101       0.00073912       0.00005841      -2.70547457
H        5.06971491       4.36550065       4.79555728       2.11152762       1.72287137       0.73429425       0.00011330       0.00050158       0.00037491       0.00038733       0.00037798      -0.00029568      -2.90372591
H        6.53866565       6.36920847       4.87038182      -1.07638969      -2.06830676      -0.70564470       0.00054397       0.00107621       0.00054633       0.00024580       0.00002086       0.00045850      -1.13168063
H        3.37942685       4.49365490       4.20601441      -4.32676947       1.94387092       1.91239666      -0.00189158      -0.00022862       0.00048670       0.00006794       0.00069019       0.00076677      -2.06957816
H        6.75131773       3.17248270       6.40598514      -0.07069484       0.09749249      -0.04304102       0.00005146       0.00008853       0.00002870      -0.00003566       0.00002591      -0.00006015      -0.01729350
H        4.03097317       4.12411340       5.03917475      -0.00218486       0.62129447       1.39547910      -0.00099776       0.00061912       0.00006466       0.00003749       0.00053699       0.00083208      -3.07913771
