20
Lattice="10.0 0.0 0.0 0.0 10.0 0.0 0.0 0.0 10.0" Properties=species:S:1:pos:R:3:forces:R:3:stresses:R:6:energies:R:1 energy=-23.140722116472993 stress="0.006531282466896338 0.0024160304727931276 -0.0036035267318840964 0.0024160304727931276 0.0036158218416395727 -0.00165650179296565 -0.0036035267318840964 -0.00165650179296565 -0.005474451709615829" free_energy=-23.140722116472993 pbc="F F F"
H        5.21691004       6.09725378       6.66751195      -3.06635931      -1.24533571      -0.35360846       0.00149713       0.00089392       0.00026660       0.00037401      -0.00032979       0.00008305      -2.12875984
H        4.08275208       3.74553697       4.18052884      -0.66143165      -2.18851278       1.78593155       0.00189068       0.00010196       0.00069717      -0.00051936      -0.00068899       0.00121883      -1.53744309
H        4.14531636       5.82537416       7.00361031       8.36363513      -0.20727708      -1.47679137      -0.00175044      -0.00140841      -0.00008189       0.00066130      -0.00024066      -0.00025210      -2.46488373
H        3.34305094       5.21830664       7.39099535      -2.05740742      -3.20960787       1.94809987      -0.00086599      -0.00093289      -0.00035636       0.00078638       0.00021285      -0.00060225      -1.07874838
H        6.20898323       5.80103214       7.08131788       0.08914974      -0.08526067       0.15023060       0.00013975      -0.00002034      -0.00001896       0.00002109      -0.00001176       0.00007500      -1.05678927
H        5.72465051       5.14423599       6.31428740      -1.13171475       0.64686650       0.11389731       0.00061138       0.00036220       0.00012913       0.00010552      -0.00014940      -0.00031245      -1.55445756
H        3.92294995       6.90252452       6.96042426      -0.47137297      -0.50690369      -0.50567699       0.00097737       0.00022179       0.00010623       0.00021918      -0.00008176       0.00023535      -1.19318544
H        5.52193331       5.55529413       3.28888925      -3.38030886      -2.79794577      -0.44045392      -0.00094078       0.00028328       0.00005153      -0.00075780      -0.00081035      -0.00031111      -1.00397850
H        3.56784010       4.70113412       4.05568129      -1.53436786       0.14819575       0.43620289       0.00099694       0.00001647       0.00021918      -0.00026144      -0.00033958       0.00114139      -1.08569097
H        3.12567279       6.08988810       6.75799350      -2.16392608       3.00788432      -1.63522192      -0.00092539      -0.00022009      -0.00033873       0.00067816      -0.00050650       0.00084516      -1.51293419
H        7.09157511       6.80338075       3.20560589       0.67114148      -1.35391791      -9.90250526       0.00026704       0.00038961      -0.00523696      -0.00042192       0.00061626       0.00042275      -0.84281722
H        2.89370941       7.10680817       3.13212347       0.00635017      -0.02266094       0.00869972       0.00000214       0.00002726       0.00000402      -0.00001046       0.00000293      -0.00000764      -0.00284516
H        4.61545409       5.27261200       6.13397616       0.39108349       1.38772639       1.50559924       0.00111433       0.00078101       0.00080592       0.00056491      -0.00005772       0.00011284      -1.68913643
H        6.38625550       6.04549232       3.71048933       2.72642792       1.09340123       0.14217772      -0.00111963      -0.00043139      -0.00034972      -0.00091978      -0.00107323      -0.00063286      -1.48187345
H        3.51268434       3.17883613       6.08807679       0.38256791      -0.17011308      -2.20635420       0.00010947       0.00022161       0.00140464       0.00014886      -0.00018837      -0.00002421      -0.54080784
H        5.14519652       4.67228720       3.94688936      -1.29481875       0.48108766      -0.52561847       0.00156118       0.00120551       0.00046147      -0.00053607      -0.00039859       0.00092597      -0.87141676
H        6.93444234       6.84183273       4.23288741      -0.85563345       1.52160480      11.23015507      -0.00028860      -0.00042791      -0.00555530      -0.00049227       0.00063650      -0.00023783      -0.83629591
H        2.82344122       3.80696268       4.38870805       4.95986213       0.45551801      -0.11614891       0.00256707       0.00126617       0.00051875      -0.00063465      -0.00008554       0.00006126      -1.05488018
H        6.88386577       2.89197008       6.40989702      -0.01619676       0.03146905      -0.00133587       0.00000939       0.00003544       0.00000006      -0.00000150       0.00000077      -0.00001824      -0.00477035
H        3.74507798       2.92921512       4.95761739      -0.95668013       3.01378179      -0.15727859       0.00067826       0.00125064       0.00179876      -0.00066065      -0.00011060      -0.00030690      -1.19900784
