20
Lattice="10.0 0.0 0.0 0.0 10.0 0.0 0.0 0.0 10.0" Properties=species:S:1:pos:R:3:forces:R:3:stresses:R:6:energies:R:1 energy=-51.664025054746155 stress="-0.03154053890610858 -0.0012057805639100843 0.005589542775166232 -0.0012057805639100843 -0.01920762701051867 0.005107464417352845 0.005589542775166232 0.005107464417352845 -0.01255008109305834" free_energy=-51.664025054746155 pbc="F F F"
H        4.89246501       6.02366749       5.67853179      -5.90992644      -1.94509012      -4.50806068      -0.00960900       0.00141880       0.00007408       0.00013559      -0.00050347      -0.00070915      -3.84685481
H        4.42189324       4.12103163       3.94679241       9.71411420      -3.65060591      -4.01851511      -0.00286581      -0.00113676      -0.00110102      -0.00004563       0.00205884       0.00145198      -2.01296119
H        4.52732351       5.19469273       6.46959211       3.14980411      -0.52129547      -3.92558674       0.00297472      -0.00056043       0.00188070      -0.00077413      -0.00092971       0.00065324      -3.48396683
H        3.51827301       5.62216995       6.82760527       0.08725826      -1.91822783      -1.37942190       0.00030345      -0.00022671       0.00097168       0.00032106      -0.00045205      -0.00083099      -1.64540513
H        5.46888983       5.88708064       6.58596139      -2.73680337      -3.19815112       3.52139583       0.00099515       0.00108219      -0.00150406       0.00121424       0.00018226       0.00047881      -2.61469283
H        5.53711710       5.06457656       5.76149809      -6.49685934     -13.68245314       4.38378697      -0.00113049      -0.00510453       0.00178600       0.00222663      -0.00062354      -0.00340511      -3.67369653
H        4.38682637       6.25129670       6.62726919       2.40800957       5.00851072       1.38446980      -0.00033138      -0.00216876      -0.00053186      -0.00006836       0.00016567      -0.00065935      -2.60105185
H        5.32302844       5.45971766       4.73110632      -6.76740397      -4.35131609       5.62583618      -0.00264126       0.00077015       0.00166688       0.00148430       0.00080411      -0.00159434      -3.98831621
H        4.33262137       5.11990872       4.36807371      -2.91899425       0.72928392      -7.81709355       0.00082307       0.00056457      -0.00470634      -0.00044985      -0.00106410      -0.00009175      -3.40446962
H        3.86362347       5.79629363       5.76084825      -6.66884476      -2.62302926       0.29138870      -0.00268311       0.00012871       0.00104199       0.00006698       0.00024444      -0.00086940      -3.24051152
H        6.18319085       6.01203310       4.49408725       5.03752755       8.46013921      -2.33551514      -0.00241864      -0.00305244       0.00037428       0.00139112       0.00006676      -0.00126767      -1.52941049
H        2.99542800       6.72230192       3.32122303       0.06806778      -0.13288962       0.10197004       0.00004036       0.00011866       0.00007632      -0.00008088       0.00004331      -0.00005403      -0.02571402
H        4.53971078       5.01853547       5.37296601     -11.52015010       7.79603678      16.50937536      -0.00343286      -0.00444576      -0.00785667      -0.00156739       0.00061723       0.00330277      -4.32001334
H        6.34107852       5.07292469       4.97885343      -1.64231793      -3.55416977       3.84169176       0.00139257      -0.00095503       0.00003830       0.00175210      -0.00060227       0.00037070      -2.23202507
H        3.41014298       5.06409865       5.02630224       4.27191850       1.64954985       3.99271859       0.00248664       0.00016714      -0.00037691      -0.00052498       0.00039998      -0.00017018      -2.71628651
H        5.09170309       4.29324462       4.90893549      12.57190624      -3.47450642      -8.05090850      -0.00246288      -0.00056755       0.00059528      -0.00203970       0.00335644       0.00290249      -2.78309058
H        5.92052583       5.99507733       5.60970585      19.47365947      12.26149500     -10.16982362      -0.00673794      -0.00582558       0.00009097       0.00233606       0.00160641      -0.00252230      -2.55158834
H        3.44166526       4.47550606       4.12234125      -7.61682062       1.98736185      -4.15494014      -0.00323959      -0.00102617      -0.00229136      -0.00044980       0.00016676       0.00173437      -1.98357077
H        6.65779369       3.31898358       6.36878017      -0.13884268       0.21882807      -0.12210342       0.00009295       0.00019456       0.00007365      -0.00009367       0.00005861      -0.00011101      -0.04141625
H        4.03846126       4.11683659       4.94703765      -4.36530222       0.94052935       6.82933559      -0.00309647       0.00141733      -0.00285199       0.00027378      -0.00000613       0.00018516      -2.96898318
