20
Lattice="10.0 0.0 0.0 0.0 10.0 0.0 0.0 0.0 10.0" Properties=species:S:1:pos:R:3:forces:R:3:stresses:R:6:energies:R:1 energy=-57.97668485227241 stress="-0.008267750984544993 -0.011482935686401545 -0.007642733176659912 -0.011482935686401545 -0.006614273182651091 -0.004569771801383685 -0.007642733176659912 -0.004569771801383685 -0.004078140908829554" free_energy=-57.97668485227241 pbc="F F F"
H        4.84907921       6.06136770       5.59339447       1.31567104       1.49671857       1.61238713      -0.00010898      -0.00031252      -0.00062554      -0.00138475      -0.00038045      -0.00068029      -4.12589108
H        4.73057745       4.12615311       4.09923549      -5.46175352      -1.01528037      -4.94360877       0.00027785       0.00047733      -0.00191337      -0.00039043      -0.00200881      -0.00045256      -2.20568558
H        4.54810191       5.29460188       6.48673878       2.37245271       1.48544705      -1.87310418       0.00124856       0.00044158       0.00059629      -0.00122244      -0.00004320       0.00028624      -3.57049217
H        3.54286267       5.64300904       6.78439002      -0.74171684      -0.31329841       0.58870629      -0.00006042       0.00001632       0.00004009       0.00033811      -0.00008920       0.00007126      -1.71594128
H        5.46733458       5.96805577       6.48664348      -1.15196317       0.82102734       0.36091407       0.00185640       0.00001962       0.00049455       0.00006233      -0.00090131       0.00002568      -2.67094267
H        5.46692787       5.08097046       5.84429049       0.82469643      -1.34853289      -0.00812063      -0.00061392      -0.00008874       0.00032778      -0.00036619      -0.00069549      -0.00128681      -4.64340445
H        4.34868548       6.37782973       6.53719736       1.95223529      -0.03117200      -0.61434720       0.00128989      -0.00009207       0.00032989       0.00044032      -0.00005039      -0.00045899      -2.61897305
H        5.27049994       5.46616366       4.79116495      -4.40676285       0.89566390      -7.83104203      -0.00119949      -0.00385040      -0.00122698      -0.00072514      -0.00050459      -0.00039887      -4.18582712
H        4.25856746       5.10222713       4.38307085       0.99956780      -1.70863585       0.38649274       0.00227048       0.00208539       0.00000004      -0.00051337       0.00027678      -0.00016671      -3.51660496
H        3.77391754       5.84566809       5.72555988      -0.16214372      -1.05525080      -0.50997614       0.00036457       0.00061603       0.00081194       0.00028371       0.00101634       0.00001929      -3.21306203
H        6.28366203       5.74777473       4.38061813      -0.64367317       0.56733800      -1.30733512       0.00069576      -0.00030815      -0.00038555       0.00008838      -0.00021497       0.00028696      -1.69843326
H        3.22394495       6.29668195       3.67269392       0.44073585      -0.62518276       0.51789894       0.00023872       0.00043263       0.00032873      -0.00028571       0.00021072      -0.00025545      -0.14562237
H        4.47553903       5.06704968       5.43404522      -1.79792006      -1.98914383       1.52588334      -0.00426556      -0.00439880      -0.00434724      -0.00092451      -0.00109225      -0.00047271      -4.75296092
H        6.16324629       4.84043467       4.98701120      11.91231849       5.90904730       3.21409475      -0.00538990      -0.00050027       0.00053130       0.00096523      -0.00041066      -0.00295444      -2.88490823
H        3.43603526       4.89996126       5.14667401      -0.47876138       1.24747454      -1.66119090      -0.00009080       0.00095969       0.00189038       0.00105407      -0.00041013       0.00047220      -2.74071775
H        5.22762756       4.42165965       4.97313685      -7.41901822      -8.98933634       8.07896984      -0.00610591      -0.00399630      -0.00218083      -0.00113149      -0.00041503      -0.00388292      -3.48909835
H        5.96905293       5.95301380       5.41791189       2.89586420       2.22996688       5.77235074      -0.00039573       0.00031936      -0.00078053      -0.00025626      -0.00174062      -0.00137268      -3.04606171
H        3.58913576       4.21479811       4.18681300       0.68389188       2.12273879       0.61579063       0.00090104       0.00083309       0.00044713       0.00093774      -0.00030969       0.00020491      -2.09348569
H        6.08757360       4.13597971       5.87558207      -2.55600015       2.30319415      -2.59046251       0.00133063       0.00115418       0.00127046      -0.00060937       0.00086384      -0.00069159      -1.57828911
H        4.17939007       4.08657760       5.10133884       1.42227938      -2.00278328      -1.33430100      -0.00051097      -0.00042223       0.00031332      -0.00093001      -0.00074360       0.00022454      -3.08028306
