20
Lattice="10.0 0.0 0.0 0.0 10.0 0.0 0.0 0.0 10.0" Properties=species:S:1:pos:R:3:forces:R:3:stresses:R:6:energies:R:1 energy=-69.43825675034905 stress="0.0018409249014454834 -0.0013050603438036865 0.00017263790631649194 -0.0013050603438036865 0.002304033646011816 -2.3133365799974367e-05 0.00017263790631649194 -2.3133365799974367e-05 -0.0012933778905155804" free_energy=-69.43825675034905 pbc="F F F"
H        4.96501953       5.96800172       5.44512558      -0.14728086       0.01742133      -0.02303760      -0.00066611       0.00051275      -0.00051419      -0.00080947      -0.00072545      -0.00002758      -4.74842535
H        4.63499187       4.81853492       4.07474277      -0.85337673       1.52407023      -1.30407728       0.00156723       0.00055383      -0.00061893       0.00038017      -0.00001561      -0.00045413      -3.21027936
H        4.45374480       5.18675116       6.18770427       0.00859284       1.04014902       0.18517734       0.00046339      -0.00000385      -0.00014392      -0.00142491       0.00045937       0.00043050      -4.21522680
H        3.42364551       5.57022681       6.34463513      -0.28582257      -0.15251440       0.17626837       0.00078512       0.00032585       0.00020868       0.00059128       0.00035437       0.00027267      -2.69879613
H        5.37908866       5.78396065       6.43709891      -0.13892462       0.04892111      -0.07125473       0.00155300       0.00017041       0.00034405       0.00031759      -0.00055291       0.00000732      -2.74421819
H        5.41860766       4.94779053       5.71362571      -0.13364212      -0.30630587       0.14427430      -0.00216711      -0.00082232      -0.00001488      -0.00059549       0.00011437      -0.00047798      -4.73427030
H        4.34139106       6.26497371       6.32419980       0.14594631       0.03789902      -0.10945007       0.00142475      -0.00011693       0.00044588       0.00030054      -0.00007351       0.00010117      -2.76081962
H        5.42968499       5.38137049       4.63615242       0.13187292      -1.36606157       0.61692227      -0.00089534       0.00055462       0.00094115      -0.00029118       0.00038637       0.00038109      -4.73427374
H        4.44704323       5.87756947       4.44156039       0.51061090      -0.11800762      -0.03155204       0.00071012       0.00046680       0.00064387       0.00025882       0.00021122       0.00001053      -3.38377085
H        3.87545617       5.86115944       5.39718943       0.46030251      -1.13172132      -0.27837453      -0.00143417       0.00090373      -0.00062539      -0.00044489       0.00097532      -0.00044894      -4.62233223
H        6.48489676       5.68523624       4.46213055      -0.20897643      -0.07079157      -0.17887539       0.00049644       0.00015258       0.00005373      -0.00009285      -0.00019766       0.00013786      -1.71948821
H        2.84240795       5.48748208       5.35887051       0.12194181       0.00261171      -0.05813949       0.00044945      -0.00020220       0.00091664       0.00032653      -0.00012748      -0.00014341      -2.21821331
H        4.52337091       5.02743384       5.12766357       0.15619088       0.20104948       0.38940542      -0.00530871      -0.00469574      -0.00629396      -0.00069587      -0.00006579      -0.00059115      -5.62061041
H        6.24400202       4.74463423       5.01625159       0.53819254       0.45796190       0.41311512       0.00021791       0.00063735      -0.00008604       0.00058034       0.00012654       0.00001295      -3.19060517
H        3.60651096       4.73389723       5.61147568      -0.12493866       0.15203834       0.11266015      -0.00066629       0.00132360       0.00062655       0.00043746       0.00010272       0.00029171      -3.71587482
H        5.24286509       4.26339174       4.83971112      -0.97960502       0.94378662      -0.89676692       0.00139773       0.00109419       0.00021883      -0.00000241       0.00008975       0.00074963      -3.74609762
H        6.06025182       5.79286622       5.48488136      -0.19443271      -0.22307343       0.14405001       0.00053739       0.00039528       0.00091696       0.00076498      -0.00000015      -0.00036270      -3.21075027
H        3.59364397       5.15834454       4.56603676       0.92579285      -0.46168100       0.05031913       0.00134951       0.00061067       0.00106745       0.00040698      -0.00081244      -0.00035739      -3.67809291
H        5.86896869       3.93833662       5.70298933      -0.02279988       0.12019534      -0.10362951       0.00039129       0.00043134       0.00014836      -0.00019372       0.00004621      -0.00011805      -1.75838755
H        4.05616994       4.13801611       4.73546605       0.09035602      -0.71594733       0.82296545       0.00163534       0.00001207       0.00047178       0.00016297      -0.00012259      -0.00071918      -2.72772391
