20
Lattice="10.0 0.0 0.0 0.0 10.0 0.0 0.0 0.0 10.0" Properties=species:S:1:pos:R:3:forces:R:3:stresses:R:6:energies:R:1 energy=-66.70808208514771 stress="0.0013577486191574644 -0.000527904304773871 0.0016875103144574166 -0.000527904304773871 0.00022425441646846715 0.002756095493434089 0.0016875103144574166 0.002756095493434089 0.0010043936716657895" free_energy=-66.70808208514771 pbc="F F F"
H        4.98060285       5.91159025       5.47574254      -0.29663970      -0.16890218       0.27790148      -0.00065894       0.00039190      -0.00211344      -0.00107006       0.00023823       0.00071000      -4.76676162
H        4.56081213       4.71184908       4.14824171      -0.35435633       1.03265730      -0.83073487      -0.00184587      -0.00008755       0.00073254       0.00075158      -0.00055934      -0.00105022      -3.22908942
H        4.58854115       5.27530769       6.32474356      -0.57254552      -0.26463292       0.03934652      -0.00006809      -0.00021272       0.00055891      -0.00016935       0.00020537       0.00047805      -3.87480722
H        3.70539866       5.81184081       6.75103136       0.09067824      -0.42082670       0.03259361       0.00043943       0.00018347       0.00032138       0.00034916      -0.00008190      -0.00000046      -1.76916600
H        5.57405636       5.80790096       6.39208126       0.29489077       0.04463536      -0.16622199       0.00083466       0.00018536       0.00052046       0.00032828      -0.00052465      -0.00009617      -2.76022036
H        5.44511730       4.91551742       5.74488015      -2.90543711      -1.04225510      -0.66700710      -0.00067003      -0.00101947      -0.00029227       0.00002377       0.00137195      -0.00020084      -4.75007802
H        4.59838262       6.38688660       6.39139079      -0.21089318      -0.32658624      -0.10995560       0.00062581       0.00031719       0.00021290       0.00031233       0.00037388      -0.00004680      -2.70446674
H        5.30746603       5.25643463       4.69190527       1.29975604      -0.56398137       0.09455036      -0.00248307      -0.00148339      -0.00162532      -0.00136317      -0.00016261      -0.00022614      -4.71943290
H        4.31889678       5.75532638       4.59478322      -0.99458328       0.40065120      -0.33598657       0.00061537       0.00042983       0.00078770       0.00079215      -0.00071954       0.00010700      -3.97215961
H        3.90470883       5.85105277       5.66678074       1.28711607       0.40572148      -1.26532824      -0.00065934       0.00006677      -0.00005163       0.00071772      -0.00049245      -0.00031906      -4.26821271
H        6.28406513       5.48716819       4.26186679       0.79031170       0.62869023       0.57115731      -0.00014225       0.00010862       0.00079108       0.00019176      -0.00009066      -0.00005702      -1.73024072
H        3.23819621       5.96622297       4.80165996      -0.15642563      -0.04780140       0.10232322       0.00045991       0.00027442      -0.00029416      -0.00041885      -0.00001532      -0.00028838      -2.26245928
H        4.42324533       4.93301930       5.28512506       1.48966699       1.79087315       1.27794858      -0.00035866      -0.00162816       0.00024791       0.00043464       0.00060090       0.00006554      -5.51221715
H        6.17270251       4.63286743       4.96987029      -0.17813684      -0.06198666       0.10327783       0.00064097       0.00062109      -0.00024597       0.00054777       0.00020375       0.00029320      -3.18634843
H        3.32935252       4.96965178       5.33179190       0.24025400      -0.25726019       0.57481824       0.00056902       0.00073364       0.00024979       0.00012013      -0.00020482       0.00002357      -3.00085925
H        5.12394788       4.17342217       4.93805211       0.09729408       0.76366855      -0.07468251       0.00177929       0.00079046       0.00006093       0.00039062       0.00017290       0.00101153      -3.66885879
H        6.08031071       5.71509224       5.36295694      -0.17762515      -0.22458036      -0.99351135       0.00079087       0.00055433       0.00125412       0.00079767      -0.00020366      -0.00039235      -3.22904186
H        3.52676433       5.05193899       4.25519394       0.22492130      -0.49350716      -0.11673406      -0.00013184      -0.00054611       0.00013979      -0.00016094       0.00129010       0.00031767      -2.92196679
H        5.84042568       3.88697915       5.73734181       0.23580533      -0.30741044       0.15424796       0.00023430       0.00024453       0.00006730      -0.00015253      -0.00001601      -0.00007952      -1.75014633
H        3.88876859       4.12990891       4.78207149      -0.20405177      -0.88716656       1.33199717       0.00138621       0.00030005      -0.00031763       0.00033344       0.00030139      -0.00077752      -2.63154889
