20
Lattice="10.0 0.0 0.0 0.0 10.0 0.0 0.0 0.0 10.0" Properties=species:S:1:pos:R:3:forces:R:3:stresses:R:6:energies:R:1 energy=-43.32404059238944 stress="0.011766543910160175 0.0008984500668478579 -0.005016560656880477 0.0008984500668478579 0.0026003571661342715 -0.0029357533488613466 -0.005016560656880477 -0.0029357533488613466 0.007768712421363478" free_energy=-43.32404059238944 pbc="F F F"
H        5.01608231       5.90948601       5.82727425      -1.31847341       2.08858880       1.79143932       0.00190215      -0.00080234       0.00070852      -0.00091505      -0.00171449      -0.00085766      -2.59204854
H        4.29064335       4.05786582       4.00877030      -0.47244795       0.99437051       0.81198381       0.00087307       0.00047326       0.00048046       0.00030551      -0.00022188       0.00014261      -2.21730486
H        4.46717196       5.22266157       6.63086570      -3.75855403      -1.74272916       0.71386425      -0.00320398      -0.00057203       0.00062198      -0.00002938      -0.00113759       0.00054250      -3.45153714
H        3.45605471       5.37396484       7.15061330       2.85703887       1.58610815      -2.75192659       0.00133625       0.00072929       0.00137508      -0.00026799      -0.00075357       0.00048806      -1.58800700
H        5.27950622       5.88563381       6.88632352       0.68511382       3.58822141       3.36172843       0.00030864      -0.00100647      -0.00108799      -0.00036947      -0.00042364      -0.00098007      -2.07464205
H        5.46302526       4.96042736       6.31352797       0.98269301      -0.78229215      -4.74860231      -0.00030612       0.00022202       0.00115842      -0.00062519       0.00155730       0.00016133      -2.14097098
H        4.17257371       6.27178652       6.94391773       1.53454579      -3.51552697      -1.92619969       0.00188910       0.00138341       0.00114027       0.00053053      -0.00056593      -0.00011982      -2.21264351
H        5.34886411       5.24416788       4.06452515      -1.67481023       1.89156086      -0.45847122       0.00222190       0.00044114       0.00056231       0.00023539      -0.00096402       0.00104293      -2.03404076
H        4.22571535       5.07678510       4.45863609       1.72795294      -0.55416384      -1.96615416       0.00056824       0.00081079       0.00007796      -0.00029149       0.00049599       0.00142208      -3.47566130
H        3.69640819       5.72003481       6.07173151       1.86527341       2.36371939       0.60889165       0.00129764      -0.00013738       0.00001517       0.00025121      -0.00187779       0.00012346      -2.76232245
H        6.32237395       6.08429315       3.65347105      -1.07488726      -1.59406320       2.98137938       0.00085607       0.00092341       0.00132154      -0.00039088      -0.00012025       0.00073275      -1.26569430
H        2.94559508       6.86157061       3.23674196       0.02577140      -0.05947474       0.04303579       0.00001374       0.00005925       0.00003219      -0.00004125       0.00001729      -0.00002379      -0.00936567
H        4.55456717       4.99923457       5.52966340      -2.93435352      -1.82107118       1.73603469       0.00141843      -0.00218159       0.00154398      -0.00048330      -0.00012008      -0.00176392      -4.06197895
H        6.33646125       5.37355315       4.55727572      -0.49157920       0.66889824      -0.07287531       0.00058670       0.00074593       0.00069846      -0.00037778      -0.00045626       0.00035787      -1.71159887
H        3.46697587       5.08859431       5.22455520      -0.45975925      -2.57396061       1.66544025       0.00028105       0.00000933      -0.00187713      -0.00094934       0.00074692      -0.00086389      -2.68518532
H        5.06354965       4.42692086       4.73251360       2.71742654      -1.87405586       1.40084201      -0.00034157      -0.00067272      -0.00025122       0.00084351       0.00032251       0.00045715      -2.83115720
H        6.66370467       6.44511538       4.70023877      -0.93235076      -1.10043209      -1.34525751       0.00038361       0.00044498       0.00082509       0.00027042       0.00019383       0.00034054      -1.05794319
H        3.26754903       4.39669896       4.39449247       2.91137999      -0.04028673      -1.08276198       0.00176125       0.00018475      -0.00018056      -0.00022720      -0.00000329       0.00038963      -2.07860169
H        6.77508751       3.13454392       6.41150421      -0.06248645       0.08534752      -0.02470381       0.00004287       0.00007718       0.00001865      -0.00002066       0.00001538      -0.00005383      -0.01503325
H        4.07985223       4.09663910       5.11086900      -2.12749371       2.39124164      -0.73768701      -0.00012248       0.00146813       0.00058554      -0.00038336      -0.00000701      -0.00063947      -3.05830356
