20
Lattice="10.0 0.0 0.0 0.0 10.0 0.0 0.0 0.0 10.0" Properties=species:S:1:pos:R:3:forces:R:3:stresses:R:6:energies:R:1 energy=-35.24840062469485 stress="0.0026830964737380664 0.007846463326133481 0.003985330495392735 0.007846463326133481 0.02092067821667892 0.005322002762914821 0.003985330495392735 0.005322002762914821 0.009746613122122936" free_energy=-35.24840062469485 pbc="F F F"
H        5.05076957       5.91654509       5.91498422       0.43295728       1.22908881      -1.98683313       0.00109923       0.00074924       0.00054200       0.00166392       0.00067279      -0.00070415      -2.19067422
H        4.31743141       3.85106588       4.08222577       1.77465556       3.45565648       1.07928856       0.00045689       0.00180002       0.00058942       0.00054758       0.00047541       0.00052174      -2.09448397
H        4.50388003       5.40572810       6.67040870     -14.77776811       5.81393795      13.03196097      -0.00604820      -0.00128485      -0.00370297       0.00008226       0.00197093       0.00207563      -3.12952610
H        3.42363296       5.30200370       7.05450187       1.73416115      -0.96344837       1.50786609       0.00135043       0.00014749      -0.00050448       0.00090800      -0.00018646       0.00023109      -1.30332558
H        5.13074300       6.01831712       7.37133526       0.20618495      -1.77596351      -2.47596027       0.00023415       0.00062272       0.00161443       0.00077943       0.00000163       0.00009174      -1.49441984
H        5.41918848       4.98187853       6.45555223      11.32266186      -3.19864901      -1.66562994      -0.00506760       0.00008773       0.00052026      -0.00013184       0.00086708       0.00192766      -1.67498646
H        4.28327561       6.59056920       6.93106760      -0.86649108      -5.16103790      -3.32185703       0.00082371       0.00276465       0.00120519       0.00133994      -0.00012349       0.00031823      -1.66564250
H        5.35343959       5.11046034       3.85320960      -5.79372795      -2.54434209       0.87275166       0.00112236       0.00089579       0.00098036      -0.00112917      -0.00164751       0.00051069      -1.54258471
H        4.10147706       5.00072606       4.06722133       4.99039002      -1.92365048       2.95377593       0.00210968       0.00126803       0.00220101      -0.00054018       0.00033222      -0.00082478      -2.08037879
H        3.65516980       5.84672782       6.14944704       2.79926359       1.31748786      -4.74671890       0.00135879       0.00129038      -0.00016814       0.00258585       0.00002633       0.00019979      -2.33100536
H        6.42765535       6.15232468       3.38531388      -0.48924679      -1.07917548       3.84313953       0.00048983       0.00087872       0.00188977      -0.00035421      -0.00006988       0.00058076      -1.03791420
H        2.92764571       6.91588435       3.20902717       0.02679791      -0.05254058       0.02359273       0.00001502       0.00005458       0.00001102      -0.00002452       0.00001181      -0.00002633      -0.00801648
H        4.58605803       4.88314580       5.74323769      -3.00614468      -0.01911095      -0.74675377      -0.00067279       0.00108043      -0.00342450      -0.00118698       0.00049535       0.00068718      -3.10986461
H        6.22395428       5.49689868       4.36508691       3.38186115       4.10109824       0.44588499      -0.00036535       0.00151852       0.00073139      -0.00091501      -0.00112994       0.00040518      -1.50072883
H        3.54709696       4.93226260       5.39638469       1.06419688      -1.48259524      -2.25428889       0.00056773       0.00265375       0.00332039       0.00188323      -0.00050859      -0.00027020      -2.33274648
H        4.97917532       4.48512652       4.83836505      -2.15186288      -1.30245886      -8.29657746       0.00282537       0.00152692       0.00057924      -0.00141514       0.00126153       0.00130042      -2.52532370
H        6.74575030       6.58885740       4.43651843      -1.67088526      -2.93718824      -1.88366096       0.00045291       0.00138605       0.00098021       0.00046126       0.00029895       0.00075180      -0.92149905
H        3.34069868       4.27964419       4.40124139       0.40333765       0.08708679       3.78054912       0.00028136       0.00021919       0.00140366       0.00063564       0.00099848      -0.00021952      -2.03956066
H        6.81393847       3.06979547       6.41498244      -0.05438722       0.06247970      -0.01172210       0.00004433       0.00005715       0.00000876      -0.00000861       0.00001152      -0.00004868      -0.01023341
H        4.06078096       3.80201621       5.16739964       0.67404595       6.37332487      -0.14880714       0.00160525       0.00320417       0.00096958       0.00014055       0.00022715       0.00033820      -2.25548568
