20
Lattice="10.0 0.0 0.0 0.0 10.0 0.0 0.0 0.0 10.0" Properties=species:S:1:pos:R:3:forces:R:3:stresses:R:6:energies:R:1 energy=-60.28929465227592 stress="0.0015713788068552354 -0.0035725267893174633 -0.005783128995345044 -0.0035725267893174633 0.0010941903887205298 0.004803758490262368 -0.005783128995345044 0.004803758490262368 0.0037872481153456714" free_energy=-60.28929465227592 pbc="F F F"
H        4.90346711       6.06622254       5.52642078      -0.41514281      -0.92460235       1.75967286       0.00147149       0.00101603       0.00139122      -0.00036210      -0.00116217      -0.00062354      -4.12668876
H        4.66133212       4.28794314       4.11365033       1.65937794       1.81057763      -1.61560660      -0.00061422       0.00099490      -0.00055628       0.00096430      -0.00013039       0.00047731      -2.52988695
H        4.58069393       5.34942152       6.48584501       1.72889343       0.87344455      -1.83025721       0.00064375       0.00012275       0.00070760      -0.00115567      -0.00015632       0.00011811      -3.59862179
H        3.57999277       5.65721316       6.84384151       1.00841302       1.25362834      -0.63327234       0.00059794       0.00057838       0.00050284       0.00002907      -0.00033469       0.00065099      -1.65880806
H        5.50004188       5.99631542       6.43340395      -0.05133298       1.30580177       0.65641254       0.00149046      -0.00024798       0.00042350       0.00012851      -0.00110762      -0.00017339      -2.66264012
H        5.46707093       5.07804608       5.84278709       1.68386344      -3.11415408       0.84016790      -0.00029835       0.00059772      -0.00070423      -0.00011382      -0.00068736      -0.00135383      -4.63313307
H        4.42213608       6.43727017       6.56506557       1.28057321      -1.97973792      -2.16159076       0.00189237       0.00052131       0.00146579       0.00056023      -0.00091173      -0.00004250      -2.52291863
H        5.28091125       5.33598632       4.79319528      -1.78182722       7.21682687      -7.85864718      -0.00178588      -0.00387690      -0.00143647       0.00164129       0.00054750       0.00045698      -4.38645653
H        4.23631361       5.28061224       4.39320243      -0.29666703       0.75155397       0.44693259       0.00130164       0.00192513       0.00090521      -0.00047063       0.00086069      -0.00069726      -3.78029380
H        3.82723067       5.89625313       5.78421425       0.48573662      -1.28713842      -1.08213537       0.00098150       0.00055643       0.00128014       0.00036221       0.00066324       0.00005575      -3.32450345
H        6.24720861       5.56612654       4.27757723      -0.92762926       1.35531894       0.67100981       0.00065750      -0.00020869       0.00074559       0.00055484      -0.00044790       0.00015100      -1.70531036
H        3.36935016       5.99150535       3.91666375       2.21109154      -3.14785796       2.40639045       0.00100597       0.00164045       0.00117824      -0.00093286       0.00067006      -0.00084922      -0.80712530
H        4.46081101       5.07061701       5.44512195      -2.38043210      -1.09927027       1.03310871      -0.00344270      -0.00305258      -0.00268727      -0.00045107      -0.00035983      -0.00074036      -4.87903962
H        6.16835804       4.75084081       5.00610685       3.92392594       0.77619822       3.33963829      -0.00168536       0.00013589       0.00020106       0.00132851      -0.00045649      -0.00041288      -3.08254300
H        3.41459953       5.05022356       5.10129786      -1.10431682       2.54041365      -0.95494532      -0.00014244       0.00059079       0.00202047       0.00080006       0.00022692       0.00067195      -2.86536499
H        5.17956187       4.32404057       5.06398652      -4.44099886      -7.59413647       3.52815802      -0.00134174      -0.00325484      -0.00147050       0.00096234      -0.00047718      -0.00102725      -3.76421014
H        6.04521195       5.88505341       5.36614180      -1.51800665      -0.96543099       0.62393189       0.00147268       0.00122191       0.00168959       0.00076095      -0.00105241      -0.00057570      -3.07149578
H        3.57071945       4.43209226       4.10252780      -3.21310517       3.13353164      -1.20880072      -0.00082200       0.00087375      -0.00028385       0.00107433      -0.00060015       0.00025839      -2.17796557
H        5.92251139       4.00685526       5.81822646      -0.59060054       2.48231198       0.10345428       0.00043721       0.00165643       0.00013418      -0.00018205      -0.00012769      -0.00058460      -1.72362457
H        4.05423924       4.16733925       5.02823447       2.73818429      -3.38727912       1.93637815      -0.00024846      -0.00069667      -0.00171957      -0.00069470      -0.00073963       0.00066750      -2.98866415
