20
Lattice="10.0 0.0 0.0 0.0 10.0 0.0 0.0 0.0 10.0" Properties=species:S:1:pos:R:3:forces:R:3:stresses:R:6:energies:R:1 energy=-21.7061192004137 stress="0.0022942776794375595 -0.0027397676970220986 -0.0007343695449590631 -0.0027397676970220986 0.0012156842384521826 -0.001497747848870103 -0.0007343695449590631 -0.001497747848870103 0.0022671915496845804" free_energy=-21.7061192004137 pbc="F F F"
H        5.21060756       5.93688738       6.88283621       5.68850456       2.09600509       1.80346717      -0.00230263      -0.00038954      -0.00075535      -0.00063509      -0.00059308      -0.00085400      -2.00814668
H        3.99160852       3.53018976       4.19809859      -2.12852327       0.32516323       1.26944992       0.00143263       0.00095751       0.00066199      -0.00049353      -0.00023622      -0.00025043      -1.13917744
H        4.13919398       5.90660932       6.95015189      -4.64414683      -1.91273189       0.19326799      -0.00157916      -0.00008777       0.00026078      -0.00000473      -0.00015664       0.00016358      -2.47859095
H        3.30164752       5.25003591       7.37933691       1.08146718       1.81994394      -1.38901054       0.00070071       0.00089784       0.00046510      -0.00048614      -0.00030733       0.00029613      -1.10430473
H        6.29461173       5.77894955       7.11582987      -0.27517263      -0.18097229      -0.25459091       0.00024228       0.00005187       0.00011797       0.00007663       0.00012734       0.00007078      -1.04950997
H        5.81273903       5.17893335       6.29342283      -0.61509958       0.58831447       0.46263707       0.00044553       0.00026855       0.00024901       0.00017888      -0.00012144      -0.00019327      -1.53849038
H        3.77711678       6.95503303       6.95788219       0.49854754       0.57829072       0.15766321       0.00013789      -0.00010269       0.00002234      -0.00007183      -0.00011560      -0.00020437      -1.13031889
H        5.58757118       5.58062044       3.26729641       0.87898108       1.81711323      -0.84932102       0.00020564      -0.00051650      -0.00023589       0.00048294       0.00019293      -0.00001346      -1.02448584
H        3.05161862       4.84977164       4.05850366       0.82010534       0.92925515      -0.26470401       0.00029206      -0.00031234       0.00002592       0.00010776       0.00007522      -0.00043973      -0.61896410
H        3.06534699       6.14069802       6.69924021       0.38025504      -1.48528299       0.46162739       0.00031468       0.00022855       0.00023497      -0.00031257       0.00000337      -0.00040281      -1.53812446
H        7.19545373       6.86724372       3.09625737      -0.05014017       0.45838754       1.75380979      -0.00002223      -0.00010815       0.00126669       0.00014891      -0.00016843      -0.00010414      -0.82338550
H        2.89239360       7.14150782       3.11783241       0.00262743      -0.03781684       0.01552239       0.00000021       0.00004333       0.00000730      -0.00001779       0.00000124      -0.00000301      -0.00577064
H        4.70008175       5.30200815       6.17320596      -2.12143134      -1.62512383      -1.59189046       0.00030440      -0.00035324      -0.00039050      -0.00050010      -0.00081450      -0.00069724      -1.61677755
H        6.49176984       6.16957195       3.59633642      -0.34977518       0.08554440       1.33990480       0.00014608       0.00035858       0.00034770       0.00049740       0.00036757       0.00021443      -1.51095611
H        3.56551208       3.00079428       6.10221394      -0.70748671       0.71331668       2.40042180      -0.00006248       0.00004674      -0.00109984      -0.00036686       0.00037285       0.00007614      -0.53155006
H        5.30325740       4.69199449       3.84364692      -0.71672481      -1.56733590       1.12864544       0.00035188      -0.00034254      -0.00017262       0.00038084       0.00004703       0.00009539      -0.60924019
H        6.92559664       6.89902969       4.38614372      -0.20097387      -1.08252217      -3.16747833       0.00023419       0.00041023       0.00180043       0.00043375      -0.00003144       0.00025567      -0.80578885
H        2.85327481       3.79685878       4.30798847       2.05691906      -2.46553352       0.66811718       0.00127368      -0.00046824       0.00021183      -0.00002381       0.00015549      -0.00063800      -1.09056602
H        6.89491247       2.86503753       6.41005192      -0.01410567       0.03016065      -0.00152021       0.00000763       0.00003489       0.00000009      -0.00000176       0.00000082      -0.00001632      -0.00438842
H        3.83744737       2.78820290       5.07123500       0.41617281       0.91582433      -4.13601868       0.00017130       0.00059861      -0.00075073      -0.00089067       0.00046645      -0.00009512      -1.07758242
