20
Lattice="10.0 0.0 0.0 0.0 10.0 0.0 0.0 0.0 10.0" Properties=species:S:1:pos:R:3:forces:R:3:stresses:R:6:energies:R:1 energy=-67.44068869098366 stress="0.007615950337426093 -0.0034557879484524183 0.00013082096588098766 -0.0034557879484524183 0.002271681127118626 0.0005411813921806397 0.00013082096588098766 0.0005411813921806397 -0.0007811551501175666" free_energy=-67.44068869098366 pbc="F F F"
H        5.01372909       5.94198412       5.43621360      -0.30774639       0.27793097       0.56074575      -0.00133816       0.00067774       0.00031619      -0.00053760      -0.00010761       0.00043617      -4.69739551
H        4.63110024       4.67992812       4.15041925      -4.00238478       2.37521766      -1.40389863       0.00053163       0.00100432      -0.00033602       0.00062531      -0.00097247      -0.00041493      -3.21981039
H        4.48194010       5.27492362       6.22596510      -2.06838111       0.64461101       1.07345130       0.00041560      -0.00043519      -0.00050117      -0.00121634       0.00092973       0.00092224      -4.02878366
H        3.49392299       5.71558896       6.45715870       0.50399117      -0.42977035      -1.26092810       0.00081329       0.00079947       0.00095047       0.00084252       0.00012290       0.00054810      -2.18274493
H        5.46542461       5.78918505       6.42101959      -0.41146426      -0.07961389      -0.24725823       0.00140045       0.00039324       0.00040535       0.00044684      -0.00043694      -0.00021651      -2.75931995
H        5.38394040       4.90812566       5.74632620       0.38173699       0.73744646       1.00328330      -0.00201142      -0.00136121      -0.00086618      -0.00088206       0.00064684      -0.00029878      -4.75279486
H        4.46915645       6.36348284       6.35922814       1.05999728      -0.70155752      -0.31139593       0.00164431       0.00014810       0.00056915       0.00030375      -0.00068641      -0.00019104      -2.66804527
H        5.38942627       5.26522959       4.67855606      -0.34780778       0.28664326      -0.90911948      -0.00058774      -0.00030103      -0.00038569      -0.00089545       0.00041749      -0.00035447      -4.71655669
H        4.36283052       5.80498777       4.46453578       1.26888642      -0.10109372      -0.05896567       0.00320768       0.00076289       0.00068534       0.00109595       0.00025051      -0.00076999      -3.56567500
H        3.94014980       5.95731567       5.48430441       0.09481490      -0.23424622      -0.04113368      -0.00308459      -0.00002124      -0.00144356       0.00021077      -0.00036845      -0.00086571      -4.30078371
H        6.43675905       5.50002995       4.40979588      -0.11101557      -0.14745748       0.28596793       0.00036154       0.00023900       0.00033232      -0.00009954      -0.00027392       0.00008830      -1.72861269
H        3.12664350       5.93814672       4.77566582      -0.26592160       0.09095938       0.35893064       0.00083326      -0.00007097       0.00013619      -0.00129701      -0.00054791      -0.00020594      -1.96781224
H        4.45201140       5.01732081       5.18713785      -1.00063773      -1.41543417      -0.93502435      -0.00133112      -0.00311511      -0.00396656       0.00022314       0.00048247      -0.00103858      -5.69492436
H        6.19447076       4.61322404       5.05392760       0.85114601       0.62312867       0.31790642       0.00008855       0.00051209      -0.00000881       0.00042081       0.00003483      -0.00002912      -3.20512636
H        3.40630574       4.99607079       5.51468634       1.24256661       0.90898900       1.00797756       0.00127818       0.00186687       0.00201766       0.00060435       0.00058215      -0.00056833      -3.32199038
H        5.16886109       4.18404298       4.95658056      -1.84176364      -0.58206484       0.15189203       0.00116080       0.00067834      -0.00116717       0.00009043      -0.00081656       0.00009355      -3.74407761
H        6.09577424       5.68070128       5.46035174      -0.14425129      -0.06067471      -0.14187622       0.00053618       0.00043688       0.00078976       0.00066241       0.00004608      -0.00029772      -3.23648730
H        3.57143029       5.01924122       4.41770769       4.79263890      -2.67446243       0.51816796       0.00146316      -0.00081044       0.00072856       0.00002685       0.00120130       0.00052277      -3.27759915
H        5.81096100       3.89221214       5.82325037      -0.02745835       0.06067812      -0.15691710       0.00033844       0.00040037       0.00021626      -0.00019315       0.00008570      -0.00008519      -1.75428424
H        3.99692408       4.08823639       4.88468026       0.33305423       0.42077079       0.18819450       0.00189593       0.00046757       0.00074676       0.00010922      -0.00045891      -0.00073060      -2.61786437
