20
Lattice="10.0 0.0 0.0 0.0 10.0 0.0 0.0 0.0 10.0" Properties=species:S:1:pos:R:3:forces:R:3:stresses:R:6:energies:R:1 energy=-20.38601489608137 stress="0.005645475546564052 1.2477820611474392e-05 0.00016357536103418405 1.2477820611474392e-05 0.0025825026410453565 -0.0010498127667163636 0.00016357536103418405 -0.0010498127667163636 0.004749908375044809" free_energy=-20.38601489608137 pbc="F F F"
H        5.24869369       5.94653273       6.92815493      -4.00189587       1.81086203       1.05497530       0.00088380      -0.00050637      -0.00023377      -0.00043740       0.00058098       0.00061000      -2.04215841
H        3.96850258       3.49083375       4.17979950      -2.00762497      -0.11959421       1.64579165       0.00137262       0.00098516       0.00081046      -0.00061539      -0.00023827      -0.00021421      -1.08496191
H        4.09691971       5.89934128       6.95365286       4.96670172       1.51465479      -0.91380566      -0.00038961      -0.00089659      -0.00016989       0.00038972       0.00021585      -0.00067957      -2.49192944
H        3.33600774       5.20534419       7.28973156      -1.41392429      -2.71314818       1.18960039      -0.00053464      -0.00086170      -0.00013200       0.00054959       0.00006473      -0.00051066      -1.09742031
H        6.33429312       5.75224296       7.12258499       0.37559782       0.43182385       0.59007295       0.00003286      -0.00011689      -0.00020466      -0.00017484      -0.00011973      -0.00010075      -1.03566251
H        5.77551759       5.20344218       6.33911149      -0.33892937      -2.34266260      -2.49978490       0.00034157      -0.00081432      -0.00066538      -0.00079890       0.00027771       0.00023416      -1.50646977
H        3.81301547       6.97929070       6.97062486      -0.99810324      -1.75691358      -0.38669196       0.00081423       0.00092649       0.00007912       0.00017348       0.00008361       0.00040222      -1.09743024
H        5.60961292       5.59429360       3.25457720      -1.75644625      -1.50997641       0.07251680      -0.00058776       0.00012192       0.00010725      -0.00027622      -0.00023266      -0.00023667      -1.00969349
H        2.95374382       4.87798784       4.05758305       0.37481930      -0.54919986       0.09305392       0.00025507       0.00045411       0.00006455      -0.00007666       0.00002675      -0.00020655      -0.59167843
H        3.03130858       6.12370168       6.75558972       0.28543656       2.45426000      -0.48371222       0.00021425       0.00017834      -0.00008870       0.00046745      -0.00011008       0.00070868      -1.50422043
H        7.25065223       6.88106809       2.96838737      -0.61374105      -0.46372350       0.85564897       0.00024425       0.00021185       0.00053098      -0.00007910      -0.00019740       0.00021066      -0.59571816
H        2.89286565       7.15444264       3.11241302       0.00106017      -0.03964359       0.01645978       0.00000003       0.00004512       0.00000778      -0.00001873       0.00000050      -0.00000121      -0.00612229
H        4.65783276       5.36919898       6.13916794       1.12533980       0.48980567       1.30134238       0.00134593       0.00037539       0.00061024       0.00029027       0.00011081      -0.00001493      -1.65097323
H        6.53809506       6.14204282       3.45360391       2.21730196       1.87245911       0.94952195      -0.00046681       0.00027642       0.00053437       0.00014022      -0.00011051      -0.00007005      -1.16007648
H        3.56646302       2.95721050       6.15736840       0.25803864      -0.06194038      -1.18839108       0.00006367       0.00012182       0.00075953       0.00004620      -0.00013413      -0.00003051      -0.53721256
H        5.27282455       4.66956572       3.82707544      -0.01147074       0.54674893      -0.27248650       0.00041814       0.00058792       0.00022049      -0.00024331      -0.00016140       0.00038480      -0.60379820
H        6.95338681       7.01135346       4.62226932      -0.24880801      -0.73295180      -1.41018861       0.00010900       0.00032502       0.00100327       0.00040975       0.00010489       0.00016268      -0.24072212
H        2.83574413       3.78375635       4.29290371       2.26524609      -0.72986033       0.16354857       0.00126223       0.00038423       0.00021396      -0.00018589       0.00007282      -0.00045964      -1.07279971
H        6.89799605       2.85504835       6.40940578      -0.01266812       0.02650361      -0.00079333       0.00000711       0.00003112       0.00000003      -0.00000093       0.00000045      -0.00001487      -0.00365724
H        3.85828612       2.73327990       5.07350585      -0.46593015       1.87249643      -0.77667840       0.00025953       0.00075345       0.00130229      -0.00060912      -0.00007134      -0.00016109      -1.05330997
