20
Lattice="10.0 0.0 0.0 0.0 10.0 0.0 0.0 0.0 10.0" Properties=species:S:1:pos:R:3:forces:R:3:stresses:R:6:energies:R:1 energy=-23.727488653290305 stress="0.009414458320782892 0.0013315112249478846 -0.004008790188277934 0.0013315112249478846 0.007495406289936811 -0.0026809899134401932 -0.004008790188277934 -0.0026809899134401932 0.002579704005098379" free_energy=-23.727488653290305 pbc="F F F"
H        5.21520247       6.08580590       6.68794657      -2.95274601      -0.33985451      -0.41767275       0.00092528       0.00056073       0.00015089       0.00028827      -0.00028650       0.00008255      -2.14408843
H        4.09756420       3.71843653       4.17222654      -2.60054714       1.26575245       1.41475359       0.00235521       0.00169707       0.00073584      -0.00069574      -0.00059202       0.00027269      -1.55021481
H        4.15164177       5.82547906       7.00185676       4.80228032      -1.53348651      -0.65307715      -0.00070235      -0.00108031       0.00005558       0.00038052      -0.00033050       0.00007290      -2.52147828
H        3.32392714       5.21840927       7.40060922      -0.52513098      -1.03276589       0.54558252      -0.00015910      -0.00017120      -0.00003415       0.00027439      -0.00004303      -0.00015739      -1.10896840
H        6.21001880       5.79797348       7.08548257       0.61525285       0.04902043       0.56683613      -0.00007599      -0.00010842      -0.00015326      -0.00005055      -0.00014427       0.00006836      -1.05492230
H        5.72958969       5.15791687       6.31126106      -0.77581063      -0.04626262      -0.27137281       0.00034103       0.00008059      -0.00001188      -0.00005545      -0.00021012      -0.00024020      -1.55708051
H        3.92342992       6.89891557       6.95515542      -0.57177427      -0.37365123      -0.53867522       0.00100382       0.00014202       0.00010824       0.00023479      -0.00006311       0.00027664      -1.19004894
H        5.51472149       5.55226161       3.28649976      -1.89508430      -1.86232173       0.13561108      -0.00035920       0.00040144       0.00015792      -0.00054564      -0.00049405      -0.00001161      -1.03091264
H        3.52840966       4.72428026       4.05788660       0.49860494      -2.94164266       0.73939818       0.00123729       0.00153733       0.00021771      -0.00041302      -0.00016373       0.00009731      -1.09976592
H        3.12247660       6.08914740       6.73899614      -0.60543656       1.90670232      -0.73943750      -0.00022732       0.00019959      -0.00012932       0.00039994      -0.00028153       0.00060506      -1.53545441
H        7.08536900       6.79410046       3.18209644      -0.41561925      -0.93827314      -2.20146207       0.00031524       0.00033204      -0.00132558      -0.00026018       0.00002377       0.00034647      -0.99417885
H        2.89375518       7.10808185       3.13158926       0.00651443      -0.02446861       0.00950801       0.00000207       0.00002916       0.00000440      -0.00001133       0.00000302      -0.00000776      -0.00321729
H        4.62577723       5.27944673       6.13208048      -0.03183699       1.16555875       1.25909483       0.00087412       0.00066486       0.00073108       0.00049658      -0.00009355       0.00006717      -1.69003849
H        6.39002751       6.05448537       3.71366199       1.27888060       0.29107897      -0.43841288      -0.00054179      -0.00025000      -0.00021094      -0.00070397      -0.00073862      -0.00031401      -1.50910575
H        3.51355969       3.17420315       6.08696312       0.33766645      -0.11992616      -1.98204141       0.00010150       0.00021065       0.00126827       0.00011535      -0.00016277      -0.00001976      -0.55152900
H        5.14714519       4.67333151       3.94232705      -1.19212346       0.34439866      -0.43605695       0.00142464       0.00114817       0.00042212      -0.00048253      -0.00036097       0.00087646      -0.85367266
H        6.93212352       6.84284576       4.25806842       0.27270490       1.12435811       3.42325764      -0.00016794      -0.00036874      -0.00163049      -0.00033597       0.00003581      -0.00022237      -0.98459080
H        2.85832483       3.81411583       4.38492981       4.68276942       0.08834770       0.02776199       0.00239242       0.00121509       0.00052879      -0.00061406      -0.00002620      -0.00012911      -1.12304412
H        6.88409751       2.89118145       6.40984920      -0.01559259       0.03061415      -0.00133151       0.00000900       0.00003470       0.00000007      -0.00000151       0.00000077      -0.00001767      -0.00458121
H        3.74460018       2.92955966       4.96802450      -0.91297174       2.94682152      -0.44226371       0.00066654       0.00122064       0.00169441      -0.00070087      -0.00008118      -0.00031422      -1.22059583
