20
Lattice="10.0 0.0 0.0 0.0 10.0 0.0 0.0 0.0 10.0" Properties=species:S:1:pos:R:3:forces:R:3:stresses:R:6:energies:R:1 energy=-12.114722571251734 stress="-0.004944132005565748 0.005601975519926047 0.0006899019516739583 0.005601975519926047 0.0035606591501773526 -0.004690680025504909 0.0006899019516739583 -0.004690680025504909 0.003248148754404596" free_energy=-12.114722571251734 pbc="F F F"
H        5.95922551       6.76322359       7.08523343      -0.28216704      -1.01524283      -0.55665938       0.00031183       0.00068617       0.00025952       0.00030554       0.00012887       0.00013085      -0.20425819
H        3.84376715       3.28149284       4.15880170      -0.83555349      -0.68498470       1.99894317       0.00055304       0.00080652       0.00111846      -0.00076046      -0.00010080      -0.00014222      -0.93709862
H        3.65229294       5.93607722       6.81375414      -0.56455684      -5.74364527       1.99301934      -0.00364522      -0.00259630      -0.00028371      -0.00069949       0.00081159       0.00187723      -1.66578435
H        3.16927706       4.74897707       7.07360269       0.97412477       3.48316852      -0.94405578       0.00079645       0.00225179       0.00018746      -0.00043255      -0.00027657       0.00034418      -0.62701629
H        7.11533734       5.19538269       7.34569337      -0.35340472       0.17722508      -0.19190937       0.00025678       0.00016792       0.00009023      -0.00003030       0.00013832      -0.00012464      -0.07643089
H        5.57737838       5.49009418       6.27942853       2.51611154       0.97100014       0.31475859      -0.00080038       0.00053473       0.00029598       0.00031351       0.00033084      -0.00001486      -0.68777812
H        3.65825090       7.00076095       6.79332878      -0.96606912       4.31910600      -0.04347397       0.00081860      -0.00226353       0.00002011       0.00004867      -0.00008975       0.00041120      -0.72055735
H        5.74184405       5.68078400       3.13897527      -2.39550143      -2.09869817       0.71039538      -0.00052113       0.00082362       0.00027314      -0.00052293      -0.00037195       0.00024369      -0.79506120
H        2.61506903       4.88751986       4.06997169      -0.16497061       1.37338989      -0.14772288       0.00007057      -0.00064093       0.00000368       0.00004905      -0.00001449       0.00007569      -0.52480432
H        2.59129942       6.08537906       6.89773389      -2.39124636       0.40620515       0.34451640      -0.00133540       0.00125134       0.00001289      -0.00017483       0.00013138       0.00048828      -0.87237401
H        7.40892109       7.09231917       2.65825879      -0.86040975      -1.39526496       0.84010599       0.00030248       0.00076132       0.00030204      -0.00042053      -0.00026657       0.00046769      -0.25867349
H        2.89929600       7.21742379       3.08565195      -0.00384479      -0.03151707       0.01331509       0.00000055       0.00003672       0.00000655      -0.00001551      -0.00000189       0.00000448      -0.00458991
H        4.50091140       5.40353618       6.44336983       1.11645269      -2.71259539      -1.05569036      -0.00229362      -0.00028638      -0.00022150      -0.00047324       0.00074024       0.00112033      -1.11674881
H        6.77907099       6.01838319       3.27217947       2.31525143       1.85474311      -0.46589515      -0.00051220       0.00071994       0.00029559      -0.00041300      -0.00035499       0.00021776      -0.75738548
H        3.60510714       2.71769452       6.27822433      -0.16946221       0.26742893       0.83940618      -0.00000210       0.00010803      -0.00036104      -0.00008129       0.00007984      -0.00000258      -0.52866847
H        5.18084874       4.62817913       3.72881259       0.73309665       1.55157900      -0.84446650       0.00049212       0.00103418       0.00033782      -0.00052871      -0.00032639       0.00063354      -0.35461777
H        7.06345936       7.31156772       5.01623424      -0.04999604      -0.10074575      -0.08599874       0.00003143       0.00006439       0.00019210       0.00004265      -0.00002311       0.00003278      -0.03458455
H        2.83560517       3.81416558       4.17388271       1.26154852      -2.08974085       0.31437791       0.00046491      -0.00056018       0.00010815      -0.00003695       0.00005701      -0.00012194      -1.03572310
H        6.90894388       2.79188683       6.39854855       0.00241805       0.02815873       0.01109650       0.00000025       0.00003384       0.00000525       0.00001334       0.00000115       0.00000291      -0.00383944
H        3.78585605       2.56513017       5.19582494       0.11817876       1.44043043      -3.04406242       0.00006693       0.00062749       0.00060544      -0.00087364       0.00009718      -0.00004241      -0.90872820
