20
Lattice="10.0 0.0 0.0 0.0 10.0 0.0 0.0 0.0 10.0" Properties=species:S:1:pos:R:3:forces:R:3:stresses:R:6:energies:R:1 energy=-15.675005020117235 stress="0.012067188792511318 -0.004693523264091927 0.0001669231912375949 -0.004693523264091927 0.006688842726542419 -0.005198387906958362 0.0001669231912375949 -0.005198387906958362 0.00412603027685524" free_energy=-15.675005020117235 pbc="F F F"
H        5.81843427       6.36083687       6.90417444      -0.21573450       1.14137194       1.78979929       0.00091012      -0.00035256      -0.00047641      -0.00082620       0.00015719       0.00007837      -0.76512431
H        3.90209810       3.39830950       4.21393668      -1.40728330      -0.82635654       1.77887514       0.00090808       0.00098866       0.00095817      -0.00083193      -0.00012122      -0.00014374      -0.95767414
H        3.81345176       5.96254072       6.89685944      -0.33274556       0.73088813      -0.74179949       0.00221337       0.00154613       0.00006619       0.00003434      -0.00006334      -0.00127662      -1.89710720
H        3.14865184       5.08102309       7.10148662      -0.24912947       2.17459890      -0.82563942       0.00070298       0.00126051       0.00014940      -0.00036122       0.00002436      -0.00038940      -1.06003580
H        6.91290300       5.29418054       7.23056075      -1.73892062       0.76873663      -1.11839646       0.00099512       0.00038677       0.00047421      -0.00017875       0.00061032      -0.00042896      -0.32695808
H        5.82623743       5.47606261       6.27592529      -0.46398287      -2.93390373      -0.30846490       0.00142398      -0.00099656       0.00004122      -0.00092949       0.00014832       0.00007031      -1.16218246
H        3.27777730       7.02497705       6.80279652       3.00427887       0.79871997       0.34890111      -0.00027501      -0.00007506       0.00000921      -0.00018499      -0.00000292      -0.00143459      -0.95813322
H        5.71398718       5.64873845       3.16808959      -0.34743726      -1.60807592       1.13050907       0.00052958       0.00106721       0.00034489      -0.00055987      -0.00026453       0.00063216      -0.89848804
H        2.66373807       4.88852955       4.06508749       0.19275542      -0.24032904       0.02726137       0.00012974       0.00023653       0.00002757      -0.00003547       0.00000905      -0.00011961      -0.54112788
H        2.67598513       6.12858649       6.75700495       0.39164400      -5.13416306       0.64764228       0.00049876      -0.00028303       0.00013280      -0.00040729       0.00020333      -0.00149678      -1.40195216
H        7.32192531       6.94744504       2.76527890       0.58937409       0.90618063      -0.43893339      -0.00012403      -0.00034469      -0.00003086       0.00021859       0.00012802      -0.00022298      -0.52382731
H        2.89733745       7.20378682       3.09150329      -0.00339384      -0.03363710       0.01414467       0.00000040       0.00003894       0.00000689      -0.00001637      -0.00000165       0.00000393      -0.00499395
H        4.77228087       5.24295782       6.70299630      -0.35596876       2.39920875       0.09089983       0.00262168       0.00100790       0.00020413       0.00013475      -0.00050006      -0.00013507      -1.16065111
H        6.73700449       6.13046720       3.22094465      -1.20037089      -1.18839086       0.64912533       0.00008249      -0.00025625      -0.00002497       0.00026785       0.00016772      -0.00011334      -1.02301281
H        3.60039410       2.77106490       6.24113212       0.07045586       0.03686501      -0.50452133       0.00002198       0.00008935       0.00036088       0.00000215      -0.00003882      -0.00000822      -0.52837275
H        5.23999198       4.64811256       3.75419962       0.72743924       1.79218328      -1.04341366       0.00047090       0.00113686       0.00038159      -0.00061992      -0.00033719       0.00064168      -0.44742319
H        7.04218495       7.26570564       4.97462430      -0.05724531      -0.13945595      -0.13495326       0.00003443       0.00008680       0.00024553       0.00004152      -0.00001987       0.00004227      -0.04514829
H        2.81449701       3.78149700       4.18925529       1.45875032      -0.57423117       0.22403472       0.00080797       0.00027990       0.00012587      -0.00013683       0.00011048      -0.00034953      -1.04202224
H        6.90869161       2.80643703       6.40307149      -0.00537133       0.03994034       0.00820573       0.00000293       0.00005090       0.00000370       0.00001015       0.00000036      -0.00000717      -0.00413320
H        3.80418973       2.56871888       5.14858317      -0.05711409       1.88984980      -1.59327664       0.00011172       0.00082053       0.00112601      -0.00081940      -0.00004263      -0.00003621      -0.92663689
