20
Lattice="10.0 0.0 0.0 0.0 10.0 0.0 0.0 0.0 10.0" Properties=species:S:1:pos:R:3:forces:R:3:stresses:R:6:energies:R:1 energy=-34.164749904083216 stress="0.007838590570093 0.005924802565359582 -0.0005422976083106817 0.005924802565359582 0.021870476457435693 0.007251523936064218 -0.0005422976083106817 0.007251523936064218 0.01337436606308039" free_energy=-34.164749904083216 pbc="F F F"
H        5.06268886       5.99772138       6.00346344      -1.26111903       0.29104556       0.28243722       0.00133489       0.00108021       0.00142093       0.00143289       0.00020946      -0.00025675      -2.24635756
H        4.32524511       3.83673056       4.08450552       1.41190436       2.87296360      -1.65561758       0.00056311       0.00115878      -0.00085934       0.00060914       0.00055621       0.00021519      -2.09873500
H        4.48356742       5.43460427       6.72138208     -10.83716150       4.91011515      10.83418212      -0.00518592      -0.00049333      -0.00248997       0.00016209       0.00135517       0.00224580      -3.19122459
H        3.40313482       5.27830634       7.12176632       2.05790095      -0.48667760       0.37063548       0.00141084       0.00018470      -0.00007143       0.00059130      -0.00038286       0.00028327      -1.24914937
H        5.25052534       5.98786803       7.36071162      -2.84193548      -1.01617993      -5.01190830       0.00150226       0.00134941       0.00245302       0.00065849       0.00083567      -0.00044960      -1.54189852
H        5.41498859       5.04336289       6.48224644      10.69527102      -2.12361957      -0.06283017      -0.00477718       0.00023057       0.00030033       0.00022836       0.00055553       0.00156044      -1.78736300
H        4.27711570       6.62052125       6.89936327       1.92483997      -6.74984961      -2.09843256       0.00205141       0.00322039       0.00134059       0.00087152       0.00021444      -0.00054987      -1.68416183
H        5.37111745       5.15092409       3.78992570      -6.81836165      -3.33152359      -0.21880324       0.00027466       0.00071346       0.00056617      -0.00131478      -0.00195501       0.00022763      -1.41314620
H        4.08037814       4.95058443       4.04882791       4.82173354      -0.94581619       2.22581427       0.00201437       0.00075187       0.00172601      -0.00049510       0.00040247      -0.00060135      -1.99439760
H        3.62473623       5.86287315       6.22499873       1.37734826       1.35089984      -3.99080448       0.00091008       0.00138311      -0.00006410       0.00227488      -0.00032371       0.00055726      -2.13162357
H        6.47173883       6.20542853       3.34227005      -0.61450898      -1.15745411       3.58743263       0.00046434       0.00083713       0.00174248      -0.00039018      -0.00012973       0.00056481      -1.03824938
H        2.92409429       6.93407158       3.20165166       0.02290279      -0.04690616       0.02030498       0.00001266       0.00005015       0.00000947      -0.00002179       0.00000999      -0.00002326      -0.00661583
H        4.58962999       4.92966140       5.77410001      -3.12480216      -0.77139331      -6.84818049       0.00148054       0.00199049       0.00018181       0.00050160      -0.00052838       0.00022501      -2.92808170
H        6.22118703       5.54051635       4.30460675       5.04536529       4.77441900       1.37270067      -0.00099257       0.00136176       0.00041138      -0.00107377      -0.00148365       0.00016014      -1.45753519
H        3.48188277       4.75353624       5.45806124       4.03509815      -0.62124362      -1.11452821       0.00203336       0.00245158       0.00287011       0.00169767      -0.00006065      -0.00013310      -2.05858699
H        4.99771121       4.50295769       4.74545875      -4.54246232       1.53501895      -1.13607730       0.00323753       0.00195060       0.00318716      -0.00031097      -0.00028531       0.00081346      -2.39449199
H        6.76435992       6.61818445       4.39722217      -1.60492319      -2.78519213      -1.75665418       0.00044515       0.00131722       0.00089275       0.00042931       0.00026955       0.00073411      -0.93264080
H        3.32672858       4.24118158       4.42295744      -0.35763444       0.26588578       1.62326817       0.00015300      -0.00016131       0.00068172       0.00082572       0.00024194      -0.00009200      -2.07779477
H        6.82076410       3.05170421       6.41405623      -0.04474051       0.05257930      -0.00989598       0.00003694       0.00004990       0.00000813      -0.00000735       0.00000979      -0.00004149      -0.00766393
H        4.00016722       3.68923933       5.10993560       0.65528493       3.98292862       3.58695693       0.00086912       0.00244379      -0.00093284       0.00058248      -0.00005322       0.00048510      -1.92503209
