20
Lattice="10.0 0.0 0.0 0.0 10.0 0.0 0.0 0.0 10.0" Properties=species:S:1:pos:R:3:forces:R:3:stresses:R:6:energies:R:1 energy=-69.60349481815439 stress="4.133689402382987e-05 -7.3445635532026715e-06 -6.5865348673915206e-06 -7.3445635532026715e-06 -1.5163907448862843e-05 -9.375741796162872e-06 -6.5865348673915206e-06 -9.375741796162872e-06 9.34130798344223e-06" free_energy=-69.60349481815439 pbc="F F F"
H        4.85481282       5.98066297       5.50073493      -0.00113742       0.00824551       0.00719061      -0.00076580       0.00059896      -0.00094507      -0.00078937      -0.00077084      -0.00031846      -4.75553946
H        4.62493390       4.92542944       4.03956820      -0.02442696       0.00029945       0.00612026       0.00142810       0.00041425       0.00004912       0.00010603       0.00004857       0.00026158      -3.26007411
H        4.48568784       5.10067575       6.19138819      -0.00274514       0.00319094      -0.00229252       0.00018778      -0.00018892      -0.00031913      -0.00127506       0.00051763       0.00039726      -4.25410738
H        3.40909628       5.28240737       6.39340536       0.00407711       0.00649915      -0.00071253       0.00080787       0.00053883       0.00035025       0.00067669       0.00028687       0.00043904      -2.67753396
H        5.31792535       5.79641048       6.46794477      -0.00493426       0.00001088      -0.00150181       0.00145010       0.00021215       0.00037374       0.00035860      -0.00067439       0.00003306      -2.74250903
H        5.46578171       5.01306519       5.68859442      -0.02775502      -0.01800958      -0.00465020      -0.00201010      -0.00035332       0.00049284      -0.00027514       0.00002261      -0.00070546      -4.70547226
H        4.20874053       6.13302934       6.39924394       0.00584271      -0.00175634      -0.00243124       0.00161846      -0.00009798       0.00048276       0.00019074      -0.00006958       0.00047509      -2.72988097
H        5.38228757       5.52721221       4.64331176      -0.01207412       0.00893307      -0.02091048      -0.00094299      -0.00021592       0.00105398       0.00002404       0.00079016      -0.00005649      -4.73551369
H        4.33191383       5.89397515       4.51143535       0.00214807      -0.00314203       0.00414745       0.00079097       0.00035397       0.00032596      -0.00006966       0.00020751       0.00024448      -3.39384546
H        3.79671248       5.69312883       5.46209828      -0.00014526      -0.00887935       0.00301821      -0.00153560       0.00031290      -0.00094529      -0.00014296       0.00107403      -0.00064156      -4.65049865
H        6.36260585       6.01249870       4.47458568       0.00190757       0.00410027      -0.00087921       0.00031564       0.00022048       0.00015419      -0.00011110      -0.00019867       0.00012535      -1.72294285
H        2.83611989       5.16559714       5.40308040      -0.00051605       0.00065557      -0.00079038       0.00040865      -0.00028082       0.00099872       0.00022864      -0.00016601      -0.00002813      -2.21726104
H        4.56092556       5.00692140       5.12159473       0.02532503       0.01195573       0.00764718      -0.00614017      -0.00515051      -0.00615943      -0.00081894      -0.00011369      -0.00058554      -5.59394439
H        6.30136740       5.01325413       4.97427703       0.01068486       0.00137744       0.00216316       0.00047062       0.00048171      -0.00004597       0.00055734       0.00013454       0.00010900      -3.19502966
H        3.71849332       4.53613365       5.60278377       0.00225488      -0.00020265      -0.00427583      -0.00063853       0.00124513       0.00083706       0.00055455      -0.00002926      -0.00006047      -3.72251316
H        5.37071924       4.41474572       4.71201534      -0.00101648      -0.02212373       0.01691687       0.00102520       0.00056886       0.00056203       0.00040691       0.00027860       0.00098339      -3.76832517
H        5.96118268       5.96549415       5.51494695       0.00607364       0.00572910       0.00675526       0.00052592       0.00004335       0.00100526       0.00061327      -0.00009649      -0.00018199      -3.23726094
H        3.61631628       5.01598921       4.58479989       0.01660454      -0.00919826       0.00047038       0.00081206       0.00078191       0.00095005       0.00012932      -0.00084460       0.00000782      -3.71890903
H        6.03547715       4.07860643       5.53734317      -0.00381921       0.00540990      -0.00381636       0.00045358       0.00039319       0.00004087      -0.00014940       0.00004416      -0.00011676      -1.76973958
H        4.25066198       4.07474033       4.68435838       0.00365150       0.00690493      -0.01216880       0.00177958       0.00010663       0.00074741      -0.00022387      -0.00044773      -0.00038853      -2.75259402
