20
Lattice="10.0 0.0 0.0 0.0 10.0 0.0 0.0 0.0 10.0" Properties=species:S:1:pos:R:3:forces:R:3:stresses:R:6:energies:R:1 energy=-48.13743921486906 stress="-0.010977072509453038 0.0010831041811639548 0.00138863845376802 0.0010831041811639548 0.007558644335904706 -0.0023038271333027157 0.00138863845376802 -0.0023038271333027157 -0.013186607986074475" free_energy=-48.13743921486906 pbc="F F F"
H        4.83323903       5.99982515       5.79927869      14.36165095      -2.07555385     -12.25772588      -0.00318587      -0.00099946      -0.00246390      -0.00047779       0.00203218      -0.00026825      -3.38939147
H        4.41871210       4.11489439       3.92051864      12.14319867      -3.41921868      -1.23601833      -0.00442825      -0.00040917       0.00011963       0.00023826       0.00159534       0.00225960      -1.96321260
H        4.48107997       5.24263113       6.50386892      -0.77519658      -2.28639313       3.35701066      -0.00087717      -0.00101457      -0.00205378      -0.00012843       0.00044638      -0.00058459      -3.57583424
H        3.48217526       5.52027478       6.86928498       0.83928647       1.82617191      -1.22358813       0.00046640       0.00063142       0.00087342      -0.00017373      -0.00032591       0.00082226      -1.66640760
H        5.34417039       5.85357707       6.79282206      -0.55931502       0.83862049      -1.62839695       0.00083473       0.00026677       0.00108798       0.00022820       0.00004221      -0.00073370      -2.18299171
H        5.46934361       5.06523161       5.97442257       2.34498852       2.49270504      -2.10223154       0.00023589       0.00177700       0.00288839       0.00008519      -0.00123735      -0.00027244      -2.96918677
H        4.29737732       6.33992522       6.61958740      -3.91471500       2.75072941      11.43566860      -0.00040826       0.00000159      -0.00418021      -0.00203220       0.00162772       0.00065429      -2.35938077
H        5.31392742       5.43055446       4.71579308       1.80052128      -2.45876268       7.63698092       0.00204261       0.00247004       0.00321677       0.00015901      -0.00036418       0.00014620      -3.45295143
H        4.30605902       5.09933781       4.45172009       2.33844280       0.98376400      -9.81422051      -0.00229183       0.00052994      -0.00511080       0.00017575      -0.00078173      -0.00156287      -3.43469194
H        3.78414222       5.81753478       5.82104828      -4.53459823      -3.94212108      -2.01620816      -0.00217627       0.00015237      -0.00010215      -0.00046724      -0.00096260      -0.00180268      -3.16199563
H        6.15013402       5.94477388       4.20467804      -0.18145640      -1.17594277      -3.75123386      -0.00000570       0.00025188      -0.00182539      -0.00059438      -0.00031608      -0.00016684      -1.54999405
H        2.97855404       6.76732348       3.29209720       0.04749429      -0.10777650       0.07924484       0.00002331       0.00010121       0.00006169      -0.00006558       0.00003102      -0.00004086      -0.02020925
H        4.52627070       5.00255592       5.46058552      -3.13010491      -2.61492187       2.49624991       0.00006652       0.00031547      -0.00688920       0.00030352      -0.00233018      -0.00005313      -4.46576664
H        6.45811770       5.08787966       4.88867574      -4.35571310       0.42446161       0.18899311       0.00262545       0.00041894       0.00084006      -0.00031562      -0.00030895      -0.00018385      -1.80622592
H        3.43496165       5.05913616       5.09799835      -0.57855932      -1.08382205       0.56068715       0.00038368      -0.00006315       0.00080215       0.00039381       0.00103040      -0.00005888      -2.75215025
H        5.09475387       4.24651575       4.86136359       0.88392127       5.80364761      -1.29775814       0.00078951       0.00298593       0.00174979       0.00021120       0.00109311      -0.00017737      -2.80368243
H        6.33134497       6.13648558       5.24701824      -2.51333803      -0.78793734       4.47793228       0.00180048       0.00054642      -0.00149459      -0.00047734      -0.00052361       0.00096564      -1.56090140
H        3.47611933       4.52307605       4.06234963     -12.99750464       4.23164399       1.25311424      -0.00564087      -0.00116652       0.00031502       0.00009650       0.00022927       0.00156432      -1.89252981
H        6.69819581       3.25483938       6.38750508      -0.10875294       0.15843562      -0.08285898       0.00007902       0.00014046       0.00005454      -0.00006219       0.00004105      -0.00008813      -0.02948919
H        4.01308318       4.12360550       4.93689481      -1.11025006       0.44227029       3.92435877      -0.00131043       0.00062207      -0.00107605       0.00059924       0.00037057       0.00066438      -3.10044612
