20
Lattice="10.0 0.0 0.0 0.0 10.0 0.0 0.0 0.0 10.0" Properties=species:S:1:pos:R:3:forces:R:3:stresses:R:6:energies:R:1 energy=-49.79419842249638 stress="0.006244449375102787 0.007082750600100695 -0.0001275081623984445 0.007082750600100695 0.0049655584718959695 -0.0034545612533988116 -0.0001275081623984445 -0.0034545612533988116 0.008729827876662358" free_energy=-49.79419842249638 pbc="F F F"
H        4.85682176       5.98470105       5.72294622       1.07478499      -0.22068522       0.67494872       0.00174327       0.00048579       0.00173807       0.00028009      -0.00114928      -0.00046843      -3.88242231
H        4.40108981       4.11340606       3.91673784       7.66200683      -3.43882553       0.09165846      -0.00228245      -0.00106348       0.00088711      -0.00014227       0.00126867       0.00133346      -2.02141769
H        4.46476018       5.25660190       6.50743065       7.13872768      -3.45982543      -3.89899253      -0.00340526      -0.00085400      -0.00025482      -0.00117140       0.00085035       0.00031299      -3.44077851
H        3.49999667       5.53081473       6.81007951      -6.50258161       2.68053698       4.31925912      -0.00272304       0.00023373      -0.00108236       0.00022220       0.00115012       0.00162384      -1.53271737
H        5.38553616       5.81339591       6.68492857       1.30772272       2.10911596       0.52337563       0.00005659      -0.00045036       0.00037136      -0.00022027      -0.00032882      -0.00049855      -2.27621740
H        5.46223262       5.02353141       5.91799813       1.12013735       1.68048388      -4.31804496       0.00117358       0.00167575       0.00279691      -0.00054179      -0.00130531      -0.00014618      -3.21061093
H        4.37490893       6.33163435       6.74016475      -1.19608750      -2.51740418      -3.62161210       0.00171187       0.00064650       0.00201772       0.00086848       0.00000393       0.00055703      -2.42540643
H        5.30265079       5.49368846       4.79826962       1.69849068      -3.43994005       4.45222412       0.00449567       0.00297463       0.00299035      -0.00035236      -0.00002269       0.00122693      -3.78932722
H        4.30849060       5.09588580       4.38082384       3.21609082       0.73169071       1.46774409       0.00108185       0.00053873      -0.00017876      -0.00071165       0.00086037      -0.00010473      -3.56579067
H        3.75008654       5.82836218       5.79816939       5.57452659       1.17745857       0.43382184       0.00157310       0.00047884      -0.00027574       0.00049055       0.00064873      -0.00107503      -3.07876928
H        6.18218693       6.00804511       4.24727326      -1.48425000      -2.09920927      -0.21641963       0.00087913       0.00080313      -0.00038080      -0.00071056      -0.00054053       0.00033408      -1.56404632
H        2.98292474       6.75764925       3.29889067       0.05034443      -0.11047001       0.08295436       0.00002536       0.00010254       0.00006447      -0.00006758       0.00003239      -0.00004247      -0.02124472
H        4.48601635       4.99084902       5.45488560      -0.55451869      -0.04578594      -1.81022662      -0.00142848      -0.00031172      -0.00189083      -0.00017622      -0.00204231      -0.00058227      -4.67315409
H        6.45997294       5.10627996       4.90784333      -4.33880125      -1.69575244      -0.93757377       0.00279721      -0.00055942       0.00070460      -0.00100096      -0.00032144      -0.00003032      -1.79772718
H        3.46116844       5.06242427       5.08354262      -4.43639444       0.70191450      -1.68562229      -0.00114327      -0.00170387       0.00018637      -0.00025454       0.00003435       0.00063094      -2.75510005
H        5.11673121       4.26807944       4.86389959      -2.31065624       6.03643798      -0.75222871       0.00254469       0.00330583       0.00222780       0.00052129       0.00121162       0.00000444      -2.82028432
H        6.28805618       6.08722860       5.33407989      -4.73821794       0.67332641       3.73954677       0.00244341      -0.00047773      -0.00048023      -0.00076756      -0.00023506       0.00143240      -1.81239842
H        3.42095916       4.47443824       4.09887756      -6.84847465       3.72674178       0.60504883      -0.00295741      -0.00023865      -0.00010551       0.00054555       0.00029396       0.00136367      -2.01750823
H        6.68834035       3.26933241       6.38255499      -0.11812996       0.17161807      -0.09058046       0.00008449       0.00015022       0.00005774      -0.00006793       0.00004502      -0.00009463      -0.03260073
H        3.99883122       4.13362959       4.95811488       3.68528019      -2.66142677       0.94071912      -0.00042586      -0.00077087      -0.00066363      -0.00019763      -0.00058157       0.00130557      -3.07667655
