20
Lattice="10.0 0.0 0.0 0.0 10.0 0.0 0.0 0.0 10.0" Properties=species:S:1:pos:R:3:forces:R:3:stresses:R:6:energies:R:1 energy=-28.160470143478918 stress="0.0037148435740974027 0.00013744607030103596 -0.002279010723523932 0.00013744607030103596 0.007536970708476101 -0.000817720138240402 -0.002279010723523932 -0.000817720138240402 0.00884251305466379" free_energy=-28.160470143478918 pbc="F F F"
H        5.06928415       6.17000551       6.50656972       1.85589244      -0.29517751      -0.47144368      -0.00092720      -0.00062076      -0.00011896      -0.00012435       0.00010868       0.00058145      -2.54002931
H        4.29152088       3.73604166       4.05028050      -1.87376677       2.30006460       1.16199016       0.00149086       0.00099826       0.00039226       0.00018187      -0.00053279      -0.00019099      -1.94785025
H        4.28111647       5.61228636       7.06351818       2.24843363       0.25688088      -2.67910104       0.00056543       0.00050927       0.00116984       0.00036310      -0.00030754      -0.00041764      -2.64143086
H        3.34849994       5.17823368       7.48021283      -0.34678517       0.46561308      -0.69285241      -0.00006888       0.00038810       0.00043295      -0.00024087      -0.00004275      -0.00002117      -1.09715796
H        5.92178495       5.94193356       7.19424916      -0.92017048      -0.56117185      -0.54823405       0.00072580       0.00020031       0.00024671       0.00021103       0.00019053       0.00017243      -1.14411767
H        5.63511617       5.21838541       6.36952647       0.03398480       0.23670513       0.93339608       0.00036015       0.00012521       0.00039230       0.00023587      -0.00032956      -0.00003199      -1.65920706
H        4.11448010       6.67158856       6.66750896       0.22180933       0.90250346       0.58003153      -0.00149060       0.00027468       0.00022281      -0.00016217       0.00007395      -0.00040477      -1.64482446
H        5.34527747       5.36355629       3.37272903      -0.15135870      -0.67042068       1.75388391       0.00095000       0.00074146       0.00069123      -0.00039893      -0.00023132       0.00068406      -1.14327654
H        3.92439553       4.81512824       4.10455139      -1.17236831      -0.05960349      -0.29870183      -0.00099231       0.00063518       0.00036093      -0.00007763      -0.00016312       0.00008825      -1.65163890
H        3.29990886       5.94793120       6.64195441      -0.94201053      -2.51186167       0.07372714      -0.00002198      -0.00023625       0.00038898      -0.00010208      -0.00028691      -0.00084822      -1.65076580
H        6.79448199       6.50323645       3.20912089      -0.33657019      -0.40045881      -0.56638613       0.00020055       0.00012244      -0.00033332      -0.00011877      -0.00006112       0.00016247      -1.04001606
H        2.90250146       7.04129690       3.15846290       0.02040904      -0.03010321       0.01082823       0.00001727       0.00003169       0.00000481      -0.00001182       0.00000613      -0.00002008      -0.00350572
H        4.60761484       5.31658949       5.95544339      -2.28753056       0.96068500       2.03011269       0.00052887       0.00072307       0.00186908       0.00076412      -0.00075548      -0.00030669      -1.83273572
H        6.20222689       5.86962459       3.92462317      -0.54832350      -0.16225733      -0.10621489       0.00062170       0.00052237       0.00024836       0.00010360       0.00012779       0.00053315      -1.56375983
H        3.41349712       3.65201186       5.87545867      -0.09562258       0.86765224      -1.12588925       0.00012774       0.00033794       0.00104474      -0.00029545       0.00010651       0.00011270      -0.77724774
H        4.99432329       4.62277420       4.19168913       2.25211311       0.04815219      -0.60803972      -0.00051278       0.00099739       0.00076052      -0.00034776      -0.00042037       0.00099654      -1.64130818
H        6.84117775       6.73020005       4.29637359      -0.40291790      -0.40455939       0.45243636       0.00017614       0.00024235      -0.00028445       0.00002414       0.00005945       0.00020537      -1.00752767
H        3.19424845       4.07130193       4.49131817       3.12120203      -2.60948437       1.30077738       0.00159150       0.00060526       0.00121203      -0.00030019      -0.00004782      -0.00087565      -1.60925651
H        6.86034078       2.94998136       6.41035917      -0.01494744       0.02767396      -0.00049815       0.00000916       0.00003139       0.00000001      -0.00000057       0.00000031      -0.00001695      -0.00404261
H        3.84996452       3.21787043       4.94356117      -0.66147227       1.63916775      -1.19982231       0.00036343       0.00090759       0.00014169      -0.00052086       0.00022642      -0.00026483      -1.56077130
