20
Lattice="10.0 0.0 0.0 0.0 10.0 0.0 0.0 0.0 10.0" Properties=species:S:1:pos:R:3:forces:R:3:stresses:R:6:energies:R:1 energy=-68.0810412493624 stress="0.0010963882543902543 -0.0033535859934329918 0.002070849625969211 -0.0033535859934329918 0.003856913381975934 -0.0016239395417522201 0.002070849625969211 -0.0016239395417522201 0.0019827978613706876" free_energy=-68.0810412493624 pbc="F F F"
H        5.01515534       5.92998846       5.44543257       0.80100654       0.13806971      -0.69858732      -0.00234322       0.00012324      -0.00047870      -0.00077474      -0.00009670       0.00083810      -4.73269564
H        4.66066440       4.72522781       4.10513442      -3.90085725       1.21644160       0.25956056       0.00118859       0.00129402       0.00021970       0.00015523      -0.00088378      -0.00040522      -3.19691013
H        4.42754477       5.24406252       6.19382746      -0.55044493       0.88381239       0.18239229       0.00068391      -0.00007463      -0.00015090      -0.00129531       0.00086589       0.00091997      -4.19259697
H        3.47248559       5.75973323       6.37788302      -0.27519347       1.20550544       0.51172258       0.00063763      -0.00001756       0.00027703       0.00010625       0.00032770       0.00045049      -2.32545178
H        5.42366190       5.74358856       6.44787405       0.20368294       0.40218521       0.28592431       0.00126091      -0.00031873       0.00028488      -0.00001730      -0.00039995       0.00022202      -2.74696809
H        5.36813494       4.90855061       5.74837049      -0.92573702      -2.31604075      -1.38607518      -0.00191078      -0.00166692      -0.00024678      -0.00101134       0.00060989      -0.00035493      -4.76797100
H        4.47737752       6.33176158       6.32452083      -1.41604909       0.51271059       0.32677308       0.00087408      -0.00015736       0.00017492       0.00022819       0.00006030       0.00030467      -2.74911485
H        5.41788536       5.29263899       4.65900194       0.40034994      -1.81925575       1.73421155      -0.00068837       0.00048960       0.00056438      -0.00106113       0.00014372       0.00000875      -4.72657897
H        4.45551310       5.84244524       4.43940429       1.17074074      -0.70439680      -0.70803124       0.00157886       0.00081713       0.00057372       0.00077571       0.00040181      -0.00024072      -3.40189495
H        3.94418917       5.97186440       5.41215602      -0.58919374      -0.80514405      -0.79792787      -0.00292397       0.00061397      -0.00022879       0.00043046       0.00063198      -0.00081389      -4.40832799
H        6.49063429       5.47817217       4.46932227       0.26044385       0.60008650      -0.25777727       0.00028527      -0.00009678       0.00014266       0.00013205      -0.00018899      -0.00001702      -1.72452493
H        2.96301421       5.84680552       4.94814483       0.32236141      -1.44644763       1.56391441       0.00051105       0.00059285       0.00093098      -0.00075242       0.00020089      -0.00059283      -1.88764563
H        4.46525917       5.02275039       5.14488353       3.25439154       0.67768683       0.00219402      -0.00295749      -0.00348696      -0.00477848      -0.00013553       0.00004707      -0.00133523      -5.68849115
H        6.18608697       4.60558802       5.07980864       0.73208122       0.70264974       0.39713919      -0.00004867       0.00043091      -0.00021134       0.00056298       0.00034326      -0.00041939      -3.20512105
H        3.47606043       4.98817721       5.57603931      -0.89992876      -1.06136335      -1.46228834       0.00047050       0.00100525       0.00139949       0.00017856       0.00076963      -0.00068969      -3.55995304
H        5.17099935       4.18554890       4.92501129      -1.98933386       1.68015923      -0.13493065       0.00097767       0.00156555      -0.00022146       0.00011608      -0.00042274       0.00011134      -3.77203316
H        6.08693238       5.68046058       5.49329687       0.66722947      -0.31193167      -0.28321604       0.00010817       0.00044769       0.00102736       0.00076934       0.00004514      -0.00030224      -3.21759336
H        3.61008557       5.09973684       4.45289797       3.13376671      -0.79203872       1.40898962       0.00119715       0.00109653       0.00134960       0.00044167       0.00016899       0.00007002      -3.44344676
H        5.76604476       3.87325438       5.81756254      -0.26218564       0.47368523      -0.14196242       0.00039650       0.00061656       0.00019827      -0.00018906       0.00009975      -0.00019251      -1.76023221
H        4.01403236       4.09962235       4.84693862      -0.13713060       0.76362626      -0.80202529       0.00179858       0.00058255       0.00115627      -0.00028364      -0.00065300      -0.00091530      -2.57348960
