20
Lattice="10.0 0.0 0.0 0.0 10.0 0.0 0.0 0.0 10.0" Properties=species:S:1:pos:R:3:forces:R:3:stresses:R:6:energies:R:1 energy=-69.60349628936798 stress="3.8799708595201184e-05 -7.973379108770545e-06 -5.574529957985071e-06 -7.973379108770545e-06 -1.5735484531768807e-05 -4.630958601546606e-06 -5.574529957985071e-06 -4.630958601546606e-06 8.820369349076367e-06" free_energy=-69.60349628936798 pbc="F F F"
H        4.85477239       5.98068592       5.50075519       0.00097736       0.00460880       0.00467259      -0.00076566       0.00060041      -0.00094615      -0.00078891      -0.00077082      -0.00031815      -4.75554737
H        4.62490012       4.92550151       4.03954897      -0.02382393       0.00001042       0.00583206       0.00142807       0.00041369       0.00004914       0.00010598       0.00004876       0.00026088      -3.26009292
H        4.48570047       5.10062543       6.19138489      -0.00110743       0.00247144      -0.00158900       0.00018702      -0.00018945      -0.00031966      -0.00127523       0.00051719       0.00039720      -4.25411231
H        3.40911910       5.28230601       6.39346875       0.00476442       0.00463217      -0.00098770       0.00080788       0.00053978       0.00035026       0.00067775       0.00028675       0.00043900      -2.67745399
H        5.31789541       5.79639603       6.46795174      -0.00224466       0.00011429      -0.00143404       0.00144893       0.00021180       0.00037388       0.00035837      -0.00067472       0.00003351      -2.74255252
H        5.46578995       5.01310774       5.68856368      -0.02590250      -0.01786659      -0.00618031      -0.00200932      -0.00035319       0.00049307      -0.00027519       0.00002205      -0.00070544      -4.70552921
H        4.20878154       6.13297052       6.39928616       0.00141448      -0.00108057      -0.00098228       0.00161713      -0.00009810       0.00048217       0.00019061      -0.00006895       0.00047596      -2.72990660
H        5.38223619       5.52724075       4.64329542      -0.00877339       0.01450345      -0.01974911      -0.00094281      -0.00021695       0.00105433       0.00002460       0.00078996      -0.00005666      -4.73553967
H        4.33184665       5.89398988       4.51151057       0.00091188      -0.00237865       0.00122311       0.00079071       0.00035365       0.00032465      -0.00006936       0.00020713       0.00024469      -3.39384785
H        3.79669323       5.69303953       5.46216835      -0.00111124      -0.00670242       0.00230464      -0.00153593       0.00031233      -0.00094616      -0.00014221       0.00107470      -0.00064106      -4.65050495
H        6.36253760       6.01262264       4.47457330       0.00051421       0.00346350      -0.00160716       0.00031641       0.00022061       0.00015370      -0.00011112      -0.00019862       0.00012576      -1.72295288
H        2.83613706       5.16543728       5.40316623      -0.00036115       0.00062803      -0.00110514       0.00040874      -0.00028080       0.00099866       0.00022855      -0.00016610      -0.00002807      -2.21727355
H        4.56092178       5.00691583       5.12158663       0.02714048       0.01234708       0.00779978      -0.00614146      -0.00515081      -0.00615996      -0.00081796      -0.00011249      -0.00058542      -5.59388199
H        6.30136456       5.01334389       4.97419744       0.00985576       0.00246468       0.00380215       0.00047089       0.00048154      -0.00004555       0.00055777       0.00013384       0.00010886      -3.19502518
H        3.71857206       4.53602788       5.60278258      -0.00083820       0.00053367      -0.00350741      -0.00063910       0.00124565       0.00083844       0.00055536      -0.00002954      -0.00006171      -3.72244152
H        5.37074038       4.41479769       4.71197035      -0.00060329      -0.02328260       0.01719544       0.00102508       0.00056819       0.00056287       0.00040658       0.00027925       0.00098271      -3.76836470
H        5.96114845       5.96556814       5.51492794       0.00426306       0.00377612       0.00722999       0.00052650       0.00004405       0.00100561       0.00061354      -0.00009640      -0.00018178      -3.23722220
H        3.61628874       5.01595217       4.58481743       0.01838158      -0.00955743       0.00234310       0.00081269       0.00078259       0.00095095       0.00012915      -0.00084436       0.00000780      -3.71888868
H        6.03556555       4.07870208       5.53728910      -0.00479342       0.00521750      -0.00447471       0.00045382       0.00039297       0.00004119      -0.00014939       0.00004454      -0.00011698      -1.76974963
H        4.25075042       4.07474666       4.68426582       0.00133599       0.00609710      -0.01078600       0.00177920       0.00010630       0.00074738      -0.00022353      -0.00044776      -0.00038906      -2.75260858
