20
Lattice="10.0 0.0 0.0 0.0 10.0 0.0 0.0 0.0 10.0" Properties=species:S:1:pos:R:3:forces:R:3:stresses:R:6:energies:R:1 energy=-64.59368983680064 stress="0.0027420685205128224 -0.001017895352840257 0.00052223246030167 -0.001017895352840257 -0.0059330812970586075 0.0020741819042399173 0.00052223246030167 0.0020741819042399173 -0.0014285096216971552" free_energy=-64.59368983680064 pbc="F F F"
H        4.92697131       5.97849076       5.50361223      -0.97407310      -0.22888032      -0.77082085       0.00059065       0.00018191      -0.00004869      -0.00093917       0.00040447      -0.00004092      -4.57800862
H        4.73483080       4.57759632       4.20076251      -1.77483827      -0.64615684      -2.51141911      -0.00080360      -0.00053930      -0.00032520       0.00021424      -0.00136758      -0.00116066      -3.06010859
H        4.63155132       5.39082145       6.43875490      -3.03016010       0.14026776       1.07258074      -0.00168075      -0.00133960       0.00001141      -0.00138799       0.00111744       0.00016606      -3.57337252
H        3.63261563       5.76256300       6.70448752      -0.21560182       0.46689836       0.33526628       0.00014795       0.00030387       0.00013626       0.00030163      -0.00021826       0.00040037      -1.74892260
H        5.55719771       5.97998630       6.39331157       0.16784790       0.34328106       0.58686465       0.00056127       0.00075299      -0.00008803       0.00065524      -0.00035248      -0.00071551      -2.70120985
H        5.44341088       4.97758368       5.86984968       1.08763461       2.81765585       1.96478987      -0.00137379      -0.00087954      -0.00207673      -0.00054319       0.00113148       0.00003844      -4.62384208
H        4.47292534       6.47166258       6.39417474       0.70070135      -0.26952881      -0.54971911       0.00162786      -0.00006985       0.00045977       0.00043065      -0.00002083      -0.00009317      -2.62146849
H        5.29729647       5.23149863       4.82319476      -0.84896268       3.99354064      -3.30573067      -0.00304427      -0.00389959      -0.00344489      -0.00115953      -0.00089240      -0.00046274      -4.68584883
H        4.27612884       5.56568142       4.51877069      -1.18831782      -0.58474116       2.08319422       0.00198396       0.00195651       0.00224364       0.00128841       0.00058008       0.00033838      -4.14258685
H        3.82589829       5.93505057       5.63523357       2.73470554      -1.30043066      -2.29434800       0.00116815       0.00060462       0.00178140       0.00039557       0.00055234      -0.00075546      -3.54863009
H        6.26085707       5.41740876       4.32804601      -0.02886473       1.05983786       0.55441869       0.00030316       0.00003554       0.00079145       0.00049398      -0.00017591       0.00005147      -1.75277422
H        3.21994206       5.73501150       4.11338196       1.52072511       0.04695364       1.69892743       0.00094665       0.00000008       0.00090950      -0.00023597       0.00067355      -0.00017523      -1.72468354
H        4.41412572       5.00860931       5.44817914      -1.28225969      -0.12499259       0.18897467      -0.00094620      -0.00241906      -0.00101516      -0.00009452      -0.00056541      -0.00029762      -5.13569124
H        6.15691759       4.62872278       5.09532348       0.90571019      -0.12522390       0.99412833       0.00012572       0.00045903      -0.00048873       0.00111670       0.00001493       0.00045411      -3.16175978
H        3.38717656       5.10482564       5.03304616       0.23174522       1.20299303      -0.83975132       0.00073258      -0.00039956       0.00094400       0.00014240      -0.00013714       0.00033777      -3.29849344
H        5.10156866       4.21469281       5.16389239      -0.16591926      -4.48163717       0.12683672       0.00091247      -0.00134154      -0.00124290       0.00005325      -0.00009089       0.00029491      -3.77668155
H        6.04769180       5.77131913       5.40555655       0.52114102      -0.78515805      -0.95399244       0.00078683       0.00108380       0.00053290       0.00048411      -0.00058042      -0.00065665      -3.19270703
H        3.66553578       4.72513508       3.99816013      -0.48659651       2.17674985       0.28472513      -0.00026287      -0.00001201       0.00044964       0.00106229       0.00019760       0.00086027      -2.65100390
H        5.86752463       3.96980524       5.94131037       0.01412395      -1.08916813       0.31070611       0.00023688      -0.00015210       0.00006207      -0.00003081       0.00017897      -0.00005369      -1.74068521
H        3.97159516       4.18351277       4.89846254       2.11125910      -2.61226043       1.02436865       0.00072943      -0.00025926      -0.00102021      -0.00017311       0.00007270       0.00045198      -2.87521142
