20
Lattice="10.0 0.0 0.0 0.0 10.0 0.0 0.0 0.0 10.0" Properties=species:S:1:pos:R:3:forces:R:3:stresses:R:6:energies:R:1 energy=-69.60279361902985 stress="0.00030669397265357755 0.00019730594476519644 0.00011171881774410101 0.00019730594476519644 0.00011622824940239168 -3.195024252740428e-06 0.00011171881774410101 -3.195024252740428e-06 -0.00011818701380859822" free_energy=-69.60279361902985 pbc="F F F"
H        4.85573505       5.98068341       5.49931025      -0.03153535      -0.00826111       0.00135682      -0.00073395       0.00060153      -0.00093818      -0.00079196      -0.00077563      -0.00029823      -4.75582539
H        4.62872209       4.92234972       4.04000209       0.00013461      -0.00271221      -0.01340336       0.00143523       0.00041434       0.00003666       0.00010540       0.00006138       0.00026998      -3.25914592
H        4.48249403       5.10042570       6.19010366      -0.01624847       0.08866729       0.05316441       0.00020796      -0.00014541      -0.00034068      -0.00128197       0.00053200       0.00040205      -4.25027668
H        3.40582412       5.28609051       6.38750991      -0.03317571       0.00949716      -0.00523177       0.00079956       0.00051967       0.00035569       0.00066774       0.00029363       0.00043264      -2.67952213
H        5.31365438       5.79726453       6.46915319       0.00400673      -0.01791965       0.01125265       0.00144612       0.00021295       0.00035897       0.00035748      -0.00066520       0.00004544      -2.74390015
H        5.46444271       5.01390041       5.69078635      -0.12379667      -0.05008209      -0.00874334      -0.00200141      -0.00040435       0.00047597      -0.00027718       0.00003967      -0.00069247      -4.70911288
H        4.20636533       6.13388672       6.39539177       0.01675836       0.00947574       0.00952547       0.00159171      -0.00009655       0.00047245       0.00019371      -0.00007542       0.00046113      -2.73360408
H        5.38610011       5.52441209       4.64509310      -0.07730947       0.00805772       0.02916824      -0.00086757      -0.00017524       0.00109107       0.00003948       0.00077787      -0.00000114      -4.73741801
H        4.33641966       5.89262068       4.50814831       0.02128364       0.03065183      -0.00875003       0.00080142       0.00033561       0.00031865      -0.00006442       0.00021302       0.00024488      -3.39336896
H        3.79670657       5.69581543       5.45696287       0.00896756      -0.07061687       0.01727199      -0.00151978       0.00033759      -0.00093366      -0.00016481       0.00107721      -0.00063460      -4.64797849
H        6.36775130       6.01059308       4.48147966      -0.04011178      -0.03987057      -0.01136982       0.00034130       0.00023490       0.00013953      -0.00011821      -0.00019777       0.00013723      -1.72296407
H        2.83512170       5.17009612       5.39521080       0.01627458       0.00684862       0.02109705       0.00041716      -0.00027876       0.00100033       0.00023080      -0.00015965      -0.00002831      -2.21711287
H        4.56043368       5.00681233       5.12123942       0.12818875       0.06319376      -0.01506384      -0.00608796      -0.00515003      -0.00619289      -0.00083139      -0.00010227      -0.00054106      -5.59463783
H        6.30325526       5.01076654       4.98053793      -0.03609332       0.01017690      -0.01524172       0.00048973       0.00051983      -0.00004170       0.00057449       0.00014344       0.00013118      -3.19223093
H        3.71484444       4.53825224       5.59921080       0.02114069       0.01272758       0.00730810      -0.00063558       0.00125118       0.00081375       0.00054451      -0.00002446      -0.00004732      -3.72227266
H        5.37029951       4.41185836       4.71710530       0.10903297       0.02312973      -0.02081845       0.00103297       0.00058003       0.00054218       0.00041098       0.00028560       0.00101820      -3.76753291
H        5.96228874       5.96522758       5.51973792      -0.03755828      -0.04047333      -0.04786906       0.00054303       0.00005926       0.00101709       0.00063927      -0.00007668      -0.00019130      -3.23414556
H        3.61797846       5.01684047       4.58047418       0.05485922      -0.03277327      -0.00019462       0.00082700       0.00079972       0.00093760       0.00013488      -0.00083737      -0.00000489      -3.71849754
H        6.03282981       4.07838638       5.54460241       0.03109757      -0.04729176       0.02763164       0.00044097       0.00037175       0.00002917      -0.00014442       0.00003848      -0.00010676      -1.76995114
H        4.25049470       4.07369531       4.68545064      -0.01591564       0.04757454      -0.03109036       0.00177879       0.00012821       0.00073982      -0.00022758      -0.00043612      -0.00039934      -2.75329540
