20
Lattice="10.0 0.0 0.0 0.0 10.0 0.0 0.0 0.0 10.0" Properties=species:S:1:pos:R:3:forces:R:3:stresses:R:6:energies:R:1 energy=-69.60314593878134 stress="0.00019075128733760192 3.5758295247185796e-05 6.27693477206533e-05 3.5758295247185796e-05 4.809363107579025e-05 -1.0671388765583177e-05 6.27693477206533e-05 -1.0671388765583177e-05 -7.569767873097583e-05" free_energy=-69.60314593878134 pbc="F F F"
H        4.85358269       5.98092148       5.49970084      -0.00775629       0.01193555       0.01804326      -0.00075508       0.00059225      -0.00094910      -0.00080450      -0.00076880      -0.00031166      -4.75434482
H        4.62825041       4.92356619       4.03974653       0.02561733       0.02130141      -0.03737766       0.00142314       0.00040344       0.00003043       0.00011427       0.00006635       0.00027253      -3.25950124
H        4.48333627       5.09945929       6.19067703      -0.01971730       0.11958239       0.01790533       0.00019166      -0.00014016      -0.00031523      -0.00128281       0.00053013       0.00039274      -4.25096743
H        3.40637707       5.28287634       6.38892171      -0.02889391      -0.01995093       0.00749134       0.00080007       0.00052765       0.00034792       0.00068182       0.00029369       0.00043014      -2.67858383
H        5.31320851       5.79813310       6.46886562       0.00886170      -0.00743836       0.01687294       0.00144105       0.00020787       0.00036021       0.00035198      -0.00066750       0.00004980      -2.74411855
H        5.46498700       5.01481343       5.69098060      -0.07460876      -0.05999916      -0.03503134      -0.00202030      -0.00038558       0.00048190      -0.00027919       0.00004031      -0.00070212      -4.70568948
H        4.20532443       6.13248881       6.39649234      -0.00296116      -0.01277351       0.00644376       0.00158668      -0.00008413       0.00047280       0.00019639      -0.00007007       0.00046662      -2.73359706
H        5.38483314       5.52685822       4.64494448      -0.09039365       0.02457515      -0.02752650      -0.00087686      -0.00021155       0.00107224       0.00002798       0.00078456      -0.00003716      -4.73610220
H        4.33369413       5.89252642       4.50898233       0.04273735       0.00172079       0.02098872       0.00081164       0.00034661       0.00032610      -0.00007483       0.00021203       0.00023856      -3.39360824
H        3.79542704       5.69337798       5.45834672       0.07823700      -0.09717194      -0.03259884      -0.00150377       0.00034676      -0.00093446      -0.00014551       0.00107427      -0.00066375      -4.64865638
H        6.36562533       6.01342743       4.47974218      -0.02259117      -0.02379532      -0.00073621       0.00032944       0.00023046       0.00014851      -0.00011569      -0.00019847       0.00013268      -1.72279544
H        2.83552762       5.16461545       5.39704759       0.01601637       0.00471451       0.01349318       0.00041654      -0.00027952       0.00100215       0.00023032      -0.00016302      -0.00002692      -2.21693513
H        4.56153743       5.00662454       5.12124099       0.00581067       0.05590737       0.03823390      -0.00608805      -0.00513377      -0.00616720      -0.00082677      -0.00012493      -0.00058193      -5.59606305
H        6.30324382       5.01441816       4.98036924      -0.00714255       0.00192903      -0.03202595       0.00047788       0.00050317      -0.00004875       0.00055756       0.00014835       0.00011612      -3.19384630
H        3.71754533       4.53566032       5.60003253       0.01511225       0.01061465      -0.00914405      -0.00063426       0.00125444       0.00082392       0.00055077      -0.00004288      -0.00006001      -3.72233033
H        5.37290048       4.41494416       4.71464753       0.05143179      -0.03855776       0.02534003       0.00102681       0.00055666       0.00056012       0.00041915       0.00028157       0.00100257      -3.76732259
H        5.95995004       5.96743041       5.51826628       0.00521047       0.01115524       0.00521790       0.00052648       0.00004055       0.00100050       0.00061837      -0.00009423      -0.00018845      -3.23624100
H        3.61854862       5.01424845       4.58167246      -0.00687203       0.00094245      -0.00780361       0.00080462       0.00078113       0.00093320       0.00013583      -0.00084102       0.00000566      -3.71935221
H        6.03453942       4.08006841       5.54266070       0.01147481      -0.01212954       0.00531621       0.00045062       0.00038589       0.00003687      -0.00014968       0.00004210      -0.00011128      -1.77020403
H        4.25332288       4.07351901       4.68417284       0.00042707       0.00743799       0.00689758       0.00178244       0.00010591       0.00074218      -0.00021614      -0.00043967      -0.00038837      -2.75288664
