20
Lattice="10.0 0.0 0.0 0.0 10.0 0.0 0.0 0.0 10.0" Properties=species:S:1:pos:R:3:forces:R:3:stresses:R:6:energies:R:1 energy=60.458541862330584 stress="-0.5040964833973425 -0.06423703346636017 -0.2010890550087849 -0.06423703346636017 -0.3421547487780757 0.11740189033933038 -0.2010890550087849 0.11740189033933038 -0.1555326537418539" free_energy=60.458541862330584 pbc="F F F"
H        5.93307976       6.73953531       7.06431305      -0.99017067      -1.96683160      -1.14422130       0.00051188       0.00106887       0.00040208       0.00054670       0.00033049       0.00047126      -0.39575622
H        3.86633735       3.24380257       4.10942340      -0.87083739      -0.91357130       1.87776773       0.00048131       0.00069670       0.00092315      -0.00067488      -0.00009271      -0.00014452      -0.96182300
H        3.70098401       5.87648278       6.71738055      43.56966933     -20.64654693      -8.81241822      -0.01748877      -0.00466190      -0.00034671      -0.00140256       0.00274942       0.00456872      -0.57572898
H        2.95391933       4.79816586       7.16124822       0.85768616       3.47983910      -1.12163252       0.00054269       0.00222021       0.00023091      -0.00060048      -0.00024942       0.00037432      -0.59224662
H        7.15381082       5.17643013       7.36666917      -0.25756295       0.15082150      -0.11335594       0.00020281       0.00015273       0.00004511      -0.00002609       0.00008724      -0.00011722      -0.05665635
H        5.39172948       5.72545436       6.44283254     560.87276996     315.36765527     140.22356697      -0.19227207      -0.05955332      -0.01148868      -0.02628914      -0.04768721      -0.10773733      18.11058869
H        3.61206004       6.91002200       6.84697069      -2.01750637       7.54546372       1.16572356       0.00078182      -0.00395882      -0.00005253      -0.00058463      -0.00001670       0.00090336      -0.88176626
H        5.19268789       5.41552603       3.19138438    -244.02552096     389.49052452    -304.27758843      -0.04401367      -0.11250485      -0.06873559       0.08796009      -0.05517964       0.07070340      15.43176861
H        2.57199602       5.03757694       4.05687125       0.42512908      -1.85670346       0.15460567       0.00010434       0.00134603       0.00002536      -0.00014636       0.00001499      -0.00027262      -0.27911982
H        2.76848804       6.07910559       6.88205635     -39.40235795       8.29958760       7.63818543      -0.01847800       0.00100677      -0.00052648      -0.00103685       0.00337879       0.00454978      -0.25930645
H        7.42383206       7.10713099       2.64484073      -0.80455078      -1.78771087       1.15588647       0.00019380       0.00093090       0.00041246      -0.00056897      -0.00026366       0.00041584      -0.33380780
H        2.89954053       7.22255284       3.08355263       0.00359372      -0.05311688       0.02051942       0.00001295       0.00005649       0.00000978      -0.00002233      -0.00000272      -0.00000197      -0.00778016
H        4.70232047       5.33969776       6.27181568    -562.57728885    -312.32191334    -137.95226628      -0.19185633      -0.05996843      -0.01158824      -0.02650307      -0.04842707      -0.10861444      18.02648251
H        6.96801228       6.07215948       3.28615103       0.36193877       1.59671311      -0.98119607       0.00052629       0.00109207       0.00044176      -0.00053953      -0.00026841       0.00060336      -0.42015969
H        3.57796611       2.72425044       6.46088378       0.23453398      -0.11810367      -1.51739447       0.00004424       0.00012102       0.00111516       0.00015214      -0.00018001      -0.00004275      -0.22724367
H        5.55532898       4.83735990       3.64319447     244.38109479    -389.27397924     304.29347967      -0.04412030      -0.11243790      -0.06869411       0.08793996      -0.05522604       0.07075075      15.42876479
H        7.06878007       7.32496136       5.02870119      -0.03584490      -0.09470363      -0.08351542       0.00002667       0.00005512       0.00018831       0.00003990      -0.00003826       0.00002043      -0.03438085
H        2.82426892       3.69940147       4.18503333       0.65842043       1.20846422      -0.00766493       0.00055859       0.00145728       0.00013033      -0.00023325       0.00010023      -0.00054082      -0.81127506
H        6.90892604       2.78748787       6.39710790       0.00288506       0.02814485       0.01142270       0.00000035       0.00003362       0.00000554       0.00001364       0.00000140       0.00000345      -0.00386708
H        3.81769338       2.51287405       5.06708054      -0.38608046       1.86596703      -0.52990403       0.00014489       0.00069267       0.00196974      -0.00062242      -0.00011975      -0.00013003      -0.69814474
