20
Lattice="10.0 0.0 0.0 0.0 10.0 0.0 0.0 0.0 10.0" Properties=species:S:1:pos:R:3:forces:R:3:stresses:R:6:energies:R:1 energy=-56.739718177099036 stress="0.002856547526044095 -0.00390063361372705 -0.0002014918912206635 -0.00390063361372705 0.005323748329682971 -0.004298933190586176 -0.0002014918912206635 -0.004298933190586176 -0.002186845498581054" free_energy=-56.739718177099036 pbc="F F F"
H        4.82290315       6.06039989       5.62425616       0.81202483      -0.14429395       1.87336345      -0.00020130       0.00024088      -0.00149362      -0.00168373       0.00048443      -0.00005379      -4.17619177
H        4.73157970       4.06302191       4.06768033      -3.07702047      -0.91925318      -0.99283714       0.00087522       0.00001767      -0.00015652      -0.00007547      -0.00093171      -0.00009641      -2.20916672
H        4.53133770       5.27138925       6.45571209      -1.62405271       3.24524329       1.45237695       0.00069186       0.00108305      -0.00067107      -0.00135278       0.00007589      -0.00045988      -3.50977343
H        3.51330156       5.69167607       6.68719116      -0.19637360      -1.46385605       0.19293189       0.00031386      -0.00011576       0.00012075       0.00041727      -0.00029537      -0.00048245      -1.74590156
H        5.42010851       5.92565982       6.54484550      -0.23370729       1.41151068       0.01732575       0.00088468      -0.00014587       0.00047832       0.00006600      -0.00029574      -0.00038922      -2.73758907
H        5.43722409       5.08059947       5.83529778       3.39502379      -1.39394823       1.19262919      -0.00146528       0.00071515      -0.00039671      -0.00063879      -0.00036827      -0.00143106      -4.38620640
H        4.35796893       6.38624255       6.55662347       0.82140234      -1.27241917      -0.74175871       0.00068556       0.00076122       0.00033639       0.00067300       0.00085898      -0.00044917      -2.51108474
H        5.27283313       5.52558800       4.80753831      -1.45184733      -1.15632992      -4.14705768       0.00098867      -0.00145773      -0.00038813      -0.00059624       0.00059291       0.00097320      -4.22519704
H        4.28910643       5.03481059       4.35842759       1.37969359      -1.43888204       0.29840314       0.00254722       0.00196238      -0.00036051      -0.00048397       0.00068080       0.00048578      -3.49102448
H        3.73823355       5.83308652       5.61562604       0.41106722       0.26521616       1.00763586       0.00057000       0.00078990       0.00167946       0.00069107       0.00140063       0.00060851      -2.99947024
H        6.29118157       5.89063253       4.48737265      -0.84841397       0.49291583      -0.46877776       0.00069889      -0.00020151      -0.00001188       0.00008644      -0.00030180       0.00030218      -1.69159100
H        3.13713880       6.45023367       3.54329852       0.20070207      -0.28882867       0.26582275       0.00011858       0.00022219       0.00019697      -0.00015785       0.00011763      -0.00012921      -0.06853056
H        4.45786516       5.05389175       5.41534609      -0.51411022      -2.16147143      -1.45129485      -0.00455050      -0.00288390      -0.00535394      -0.00105511      -0.00174544       0.00046975      -4.68241473
H        6.19823550       4.93801033       5.03412327       2.04492477       1.37595041       3.04985095      -0.00071705       0.00085225       0.00075238       0.00036348      -0.00021319      -0.00117904      -2.82834871
H        3.44783580       4.83243310       5.08568015      -1.13190468       1.30618330      -0.64939777      -0.00037959       0.00103632       0.00112097       0.00080876      -0.00039542       0.00020362      -2.74927651
H        5.24017516       4.44928221       4.94058610      -1.40081891      -2.46080182       1.35888240      -0.00106019      -0.00151246      -0.00060676      -0.00089186       0.00024132      -0.00160814      -3.69775641
H        5.94462517       6.00710121       5.53833843       0.25375699      -0.69177640       0.80894932       0.00060444       0.00079603       0.00010886       0.00054601      -0.00048633      -0.00043754      -3.14738517
H        3.57958414       4.14477461       4.18545745       2.49750193       1.91672829       0.84126085       0.00148497       0.00089582       0.00048075       0.00059162       0.00008979       0.00046635      -2.10597554
H        6.25712211       3.95492583       6.03610310      -1.95027890       3.15805665      -2.18083675       0.00096469       0.00173811       0.00107331      -0.00094360       0.00053855      -0.00090972      -0.67044035
H        4.22340142       4.03621842       5.08800671       0.61243058       0.22005625      -1.72747185      -0.00019821       0.00053000       0.00090414      -0.00066317      -0.00024913       0.00021560      -3.10639375
