20
Lattice="10.0 0.0 0.0 0.0 10.0 0.0 0.0 0.0 10.0" Properties=species:S:1:pos:R:3:forces:R:3:stresses:R:6:energies:R:1 energy=-56.84954451568419 stress="0.0023618498719208698 -0.006546292405339375 -0.006110824237359931 -0.006546292405339375 -0.006767087343393802 -0.005192923927066904 -0.006110824237359931 -0.005192923927066904 0.002849253795670125" free_energy=-56.84954451568419 pbc="F F F"
H        4.82813078       6.04606843       5.63662472       2.85960291       4.03409403       2.20630557       0.00057620      -0.00156017       0.00025367      -0.00122684      -0.00112227      -0.00147379      -4.08168914
H        4.70797423       4.11210346       4.05332804      -2.36866006      -1.61460978      -0.98873166       0.00065875      -0.00034162      -0.00003839      -0.00011636      -0.00092776       0.00024699      -2.22404727
H        4.53128085       5.27164225       6.49941789       2.88210582       1.62443103      -4.03743004       0.00137944       0.00093274       0.00164685      -0.00093338      -0.00009690       0.00015900      -3.51342577
H        3.52172557       5.62985891       6.75219678      -0.33695607       0.37777537      -0.44598571       0.00003036       0.00015918       0.00055638       0.00020270      -0.00025353       0.00031889      -1.73256535
H        5.46592073       5.91673867       6.51534231      -1.17626113       2.12895119       1.01787768       0.00177847      -0.00041658       0.00036245      -0.00034110      -0.00085452      -0.00001811      -2.64677050
H        5.48002798       5.06956749       5.84098946       0.28667058      -3.71207451      -2.34543530       0.00121131       0.00070177       0.00098532      -0.00072213      -0.00075663      -0.00176366      -4.49630339
H        4.36353550       6.36935024       6.61566768       1.03547234      -2.52517492      -2.97170943       0.00187146       0.00080586       0.00148227       0.00095035       0.00016705      -0.00019462      -2.48210068
H        5.28179233       5.49211685       4.79471818      -6.31278603      -2.58674546      -5.18824417      -0.00099995      -0.00180358      -0.00067013      -0.00069385      -0.00042761      -0.00092302      -4.18122266
H        4.27207289       5.06282638       4.36958190       1.64485819       0.83342856       0.62182835       0.00198967       0.00079721      -0.00050720      -0.00077003       0.00057712       0.00019079      -3.51532503
H        3.73753981       5.82839088       5.67591867       1.19139533       1.06503475       2.59950288       0.00073517       0.00034398       0.00190074       0.00028579       0.00126262       0.00032656      -3.03773719
H        6.27109610       5.81422525       4.42429560       1.48284953       2.11099520      -4.88972978      -0.00012576      -0.00107859      -0.00183528       0.00036394       0.00041352       0.00012361      -1.63860775
H        3.15996657       6.41243094       3.57776132       0.25008384      -0.36935685       0.31850437       0.00014345       0.00028134       0.00022535      -0.00019194       0.00013810      -0.00016104      -0.08491964
H        4.47778138       5.07841122       5.42069489       1.09108240      -5.46618326       3.19495888      -0.00437252      -0.00565401      -0.00354753      -0.00117951      -0.00123646      -0.00106590      -4.67803999
H        6.21161791       4.88390494       4.97443496      -0.28223944      -0.60472538       5.47101283       0.00013878       0.00037648       0.00125876       0.00081411      -0.00053959      -0.00111049      -2.89142574
H        3.45884485       4.88396453       5.12974945      -5.58157539       2.91906116      -1.71603290      -0.00204066      -0.00085689       0.00129857       0.00056418      -0.00045768       0.00115699      -2.70488402
H        5.22755609       4.42009023       4.95064639      -0.08600066      -1.42873149       3.21949599      -0.00051962      -0.00097365      -0.00009824      -0.00045156       0.00047101      -0.00141664      -3.75153195
H        5.95904707       5.97617947       5.44468263       1.67254579       2.21217685       8.57815003      -0.00015892       0.00031600      -0.00197242      -0.00059718      -0.00156947      -0.00123354      -2.98132781
H        3.57010826       4.21412136       4.18422797      -0.19745075       1.36214343      -0.74325278       0.00056434       0.00047227      -0.00010167       0.00079730      -0.00059820       0.00008267      -2.09381510
H        6.18742898       4.05054951       5.97105438      -2.75888782       4.38996808      -3.19796416       0.00131199       0.00217956       0.00156503      -0.00114872       0.00066622      -0.00111554      -1.05721241
H        4.17831372       4.09743672       5.07617769       4.70415064      -4.75045801      -0.70312066      -0.00181009      -0.00144838       0.00008473      -0.00079869      -0.00096584       0.00132455      -3.05659314
