20
Lattice="10.0 0.0 0.0 0.0 10.0 0.0 0.0 0.0 10.0" Properties=species:S:1:pos:R:3:forces:R:3:stresses:R:6:energies:R:1 energy=-69.55988092065338 stress="0.0027269897224182034 -0.0014480453021163604 -0.0010345488720207622 -0.0014480453021163604 0.0024301097075178383 8.540442676777696e-05 -0.0010345488720207622 8.540442676777696e-05 -0.0007258400723009293" free_energy=-69.55988092065338 pbc="F F F"
H        4.90058794       5.98040995       5.47538760       0.42802789      -0.02643178      -0.08600604      -0.00081267       0.00066056      -0.00093787      -0.00076699      -0.00094748      -0.00033883      -4.73346226
H        4.63140603       4.87587279       4.05508771      -0.09216562       0.34350443      -0.06921662       0.00158614       0.00049745      -0.00005224       0.00015016       0.00009313       0.00004932      -3.25284083
H        4.46064108       5.14659110       6.18723162      -0.34923272       0.33371669       0.30530559       0.00055709      -0.00013698      -0.00044462      -0.00136086       0.00035638       0.00023621      -4.23933809
H        3.39377342       5.41924288       6.36221950       0.38197329       0.10579398       0.01665592       0.00099338       0.00045091       0.00030138       0.00057026       0.00024092       0.00037456      -2.68866232
H        5.33126465       5.79234144       6.45333058       0.45770243       0.18684749       0.35201064       0.00135529       0.00012244       0.00020475       0.00036453      -0.00075624      -0.00007823      -2.73788698
H        5.44840143       4.97499053       5.70920646      -0.57423534      -0.21999185      -0.38300284      -0.00135351       0.00000329       0.00051268      -0.00042122       0.00003383      -0.00081269      -4.72460603
H        4.25396923       6.20374692       6.36305378       0.14562046      -0.15497393      -0.12521721       0.00162872      -0.00005359       0.00048777       0.00024480      -0.00012935       0.00030102      -2.73662511
H        5.41190359       5.45686796       4.64637101       0.08217669      -0.91559387      -0.03247515      -0.00107379       0.00020232       0.00099123      -0.00008151       0.00058939       0.00008790      -4.73889697
H        4.39736647       5.88920335       4.47626265      -0.36194759      -0.06500156       0.02009104       0.00074215       0.00036580       0.00046277       0.00001814       0.00007569       0.00025504      -3.39139841
H        3.82678918       5.77989185       5.42734677       0.28694303      -1.25335214      -0.59536286      -0.00152344       0.00083419      -0.00049387      -0.00021100       0.00088810      -0.00068032      -4.63967786
H        6.43095642       5.85928512       4.47468604       0.01509437       0.24594038      -0.38503063       0.00037944       0.00005519      -0.00000917      -0.00002799      -0.00015198       0.00011744      -1.71909493
H        2.82883641       5.32644528       5.37005641       0.33502895      -0.27059759      -0.25722778       0.00054659      -0.00019007       0.00099018       0.00027548      -0.00023630      -0.00019932      -2.21433711
H        4.54556951       5.01659739       5.12713567      -0.04873518       0.28654095       0.44814810      -0.00550610      -0.00497771      -0.00631121      -0.00078881      -0.00005215      -0.00064026      -5.60949210
H        6.28930242       4.88810324       5.00046258      -0.36053734      -0.05766588       0.38666834       0.00060957       0.00042206      -0.00005240       0.00067837       0.00010693       0.00005655      -3.18890698
H        3.65540453       4.62973843       5.60279740       0.14308116       0.24792535      -0.05420570      -0.00043698       0.00138542       0.00065928       0.00048087      -0.00001408       0.00010070      -3.72216252
H        5.31669369       4.34000213       4.77711018      -0.07602001       0.62479458      -0.59387682       0.00120492       0.00083712       0.00041053       0.00019444       0.00027471       0.00094104      -3.77511198
H        6.00529435       5.88696837       5.50185916      -0.18913802      -0.11702550       0.58331777       0.00058513       0.00021994       0.00079653       0.00061320      -0.00014904      -0.00026627      -3.22978086
H        3.61352785       5.07480553       4.57037671       0.19835032       0.19777076       0.22512401       0.00107766       0.00092222       0.00102803       0.00038242      -0.00091636      -0.00010404      -3.70821870
H        5.97491273       3.99788380       5.60542890      -0.28449636       0.51224694       0.12259576       0.00046227       0.00063931       0.00004160      -0.00010805       0.00002287      -0.00026705      -1.75862546
H        4.17516071       4.09098956       4.72209998      -0.13749042      -0.00444745       0.12170446       0.00170514       0.00017023       0.00068883      -0.00012085      -0.00036351      -0.00058080      -2.75075542
