20
Lattice="10.0 0.0 0.0 0.0 10.0 0.0 0.0 0.0 10.0" Properties=species:S:1:pos:R:3:forces:R:3:stresses:R:6:energies:R:1 energy=-65.35397575715614 stress="-0.007550394198516253 -0.0027802307668283524 -0.000871331699720327 -0.0027802307668283524 0.0011770260219778528 0.00029369289435879646 -0.000871331699720327 0.00029369289435879646 -0.003933327035358304" free_energy=-65.35397575715614 pbc="F F F"
H        4.92493329       5.93421737       5.47984177       0.59877923       0.06841264       0.89388953      -0.00016237      -0.00008205      -0.00150020      -0.00167089       0.00011723       0.00015554      -4.71850967
H        4.69132292       4.61086894       4.15578520       5.18573450      -0.82694437      -2.16520494      -0.00432823      -0.00053365      -0.00017708       0.00066413      -0.00098305      -0.00109000      -2.87680834
H        4.63248454       5.37903522       6.43671995      -2.74904939       1.63113404       0.93321791      -0.00083871      -0.00073749       0.00022848      -0.00140053       0.00091158       0.00004661      -3.56801067
H        3.64497605       5.82410653       6.67070163      -0.33243294      -0.46564168       0.47691387       0.00017725       0.00014560       0.00009581       0.00045974      -0.00017795      -0.00001463      -1.77927343
H        5.56749611       5.96646641       6.36002732      -0.31495009      -0.16990653       0.39364471       0.00077443       0.00095884      -0.00002391       0.00065557      -0.00035052      -0.00053102      -2.71049048
H        5.43285397       4.95367618       5.85087157       0.70311394       0.31942506       0.00626453      -0.00176094       0.00050746      -0.00066308      -0.00020542       0.00152219      -0.00003111      -4.68658129
H        4.49720801       6.47107863       6.34181529       1.13994004      -0.16555359      -0.24907374       0.00118615       0.00013661       0.00018153       0.00038294       0.00033609      -0.00032958      -2.65679860
H        5.29914525       5.21901525       4.77879326       1.33921933      -0.71696729      -0.26386395      -0.00246273      -0.00316387      -0.00216246      -0.00225282      -0.00181734      -0.00020322      -4.68282284
H        4.28933746       5.60220453       4.61772742      -0.50930476      -0.30399836      -1.65997186      -0.00068076       0.00095391      -0.00039059       0.00112624      -0.00078276       0.00055356      -4.36073798
H        3.83190325       5.93708098       5.59391091       1.82541449      -1.21329306      -1.52392382       0.00080833       0.00081265       0.00131877      -0.00006842       0.00118176      -0.00117338      -3.80913909
H        6.30985790       5.37802128       4.34400920      -0.50628796      -0.07866718      -0.03222798       0.00060543       0.00013257       0.00025933      -0.00000995      -0.00023997       0.00017274      -1.75717138
H        3.26371873       5.90339384       4.36715946       0.33538364      -0.52130417       0.85631731       0.00003591       0.00063340       0.00121318       0.00041079       0.00047077      -0.00026644      -1.92447439
H        4.40675846       4.95398585       5.46578094       0.18409165      -1.04932627      -0.57803547      -0.00038549      -0.00097115      -0.00100768       0.00059027      -0.00158483      -0.00027900      -5.11312317
H        6.13603252       4.57501979       5.09844946       1.25270481       0.84539006       0.23224637      -0.00015827       0.00099969      -0.00015290       0.00033534       0.00027176      -0.00000465      -3.17761608
H        3.38115739       5.06957812       5.08748403      -0.14365233       0.11877131       0.05790777       0.00058731      -0.00079683      -0.00005635      -0.00001572      -0.00048525       0.00046103      -3.29209797
H        5.09834723       4.18092096       5.09634458      -1.74611862      -0.60033436       0.21764641       0.00070322       0.00028721       0.00002562       0.00034814       0.00031921       0.00000434      -3.82109307
H        6.05034625       5.72427842       5.37423044       0.74647014       0.47811672       1.12880033       0.00060123       0.00080557      -0.00047947       0.00013583      -0.00057333      -0.00083615      -3.19013259
H        3.67765326       4.87989343       4.03192985      -6.93637451       3.65193310      -0.98368525      -0.00295324       0.00006821       0.00015622       0.00066903      -0.00008128       0.00077093      -2.63380314
H        5.78568017       3.89522145       5.93083208      -0.33489838       1.16645051      -0.62750948       0.00043804       0.00086641       0.00039768      -0.00036426       0.00005169      -0.00028013      -1.74676274
H        3.97054884       4.17191453       4.82509653       0.26221720      -2.16769657       2.88664772       0.00026303       0.00015395      -0.00119621       0.00050368       0.00102267       0.00009433      -2.84852883
