20
Lattice="10.0 0.0 0.0 0.0 10.0 0.0 0.0 0.0 10.0" Properties=species:S:1:pos:R:3:forces:R:3:stresses:R:6:energies:R:1 energy=-26.767019831254753 stress="0.014596363773125247 0.0005614009712495195 -0.004372451587189437 0.0005614009712495195 0.00469220208152747 0.0010299386979011821 -0.004372451587189437 0.0010299386979011821 0.007040374611228015" free_energy=-26.767019831254753 pbc="F F F"
H        5.12309237       6.15150902       6.59336799      -1.76401278       0.60886001      -0.25170171       0.00107386       0.00072277       0.00005730       0.00034885      -0.00030647      -0.00079353      -2.45177721
H        4.30696823       3.75017592       4.10482702      -2.21893755       0.59399460       2.17266092       0.00204419       0.00110680       0.00091583      -0.00050695      -0.00089080       0.00064855      -1.87948339
H        4.21236572       5.70438766       7.05131403       0.93418591      -4.05774897      -0.02565518       0.00048877      -0.00093798       0.00074463       0.00056236      -0.00079041       0.00028982      -2.54883645
H        3.26479706       5.20071062       7.48254062       1.49200330       1.19146470      -1.18036543       0.00079262       0.00052906       0.00042548      -0.00033220      -0.00042036       0.00041301      -1.07278808
H        6.06789564       5.87206267       7.11736699       0.02424572       0.36975290       0.64936577       0.00032928      -0.00014945      -0.00021895      -0.00015108      -0.00007481      -0.00000907      -1.09192519
H        5.69188463       5.20210469       6.31785268      -0.43336662       0.26777717      -0.08518165       0.00007282       0.00029633      -0.00004110      -0.00003649      -0.00045890      -0.00040710      -1.58529300
H        4.09851546       6.76898473       6.83233665       0.50930629      -0.87886793      -1.24552877       0.00182402       0.00015935       0.00013897       0.00055021      -0.00025793      -0.00004598      -1.50417509
H        5.31092819       5.46453013       3.37892504       1.16096024       2.87412840      -1.69735589       0.00059710      -0.00077438      -0.00052497       0.00085154       0.00024693       0.00006860      -1.09226374
H        3.85584694       4.77726662       4.09656102       2.68061355      -0.06254984      -0.07479564       0.00153056       0.00025347       0.00027451      -0.00013618      -0.00013593      -0.00003821      -1.57747226
H        3.21269354       6.01134506       6.69437909       1.05806109       0.93267959      -0.05407593       0.00066768       0.00065136       0.00016541       0.00008646      -0.00024523       0.00053093      -1.57548557
H        6.87815583       6.59267338       3.13495946      -0.51687741      -0.20206456       2.18322629       0.00024984       0.00019213       0.00117938       0.00001317      -0.00014387       0.00020538      -1.00001849
H        2.89675856       7.07196121       3.14624165       0.02030610      -0.02917411       0.01006593       0.00001792       0.00003090       0.00000439      -0.00001118       0.00000562      -0.00001944      -0.00341023
H        4.62442988       5.30998393       6.03639747      -1.89559123       1.24012130       1.68891790       0.00034429       0.00067920       0.00133792       0.00069214      -0.00054205      -0.00014864      -1.74297916
H        6.22446906       5.97080534       3.82006784      -0.87280722      -0.77265646      -0.75916854       0.00038324       0.00018133       0.00015314      -0.00020803      -0.00015583       0.00025607      -1.55120330
H        3.46290856       3.38477192       5.99538700      -0.03876748       0.47133209      -0.30658659       0.00007625       0.00024045       0.00042134      -0.00017652       0.00004500       0.00005561      -0.62590625
H        5.04334356       4.65039549       4.03694468      -4.01747814      -3.50417254       2.57422068       0.00190313      -0.00020793      -0.00050399       0.00082753       0.00009405       0.00025602      -1.51251941
H        6.86639379       6.74114235       4.29922081       0.33532762       0.17816405      -1.53638075      -0.00005926      -0.00011505       0.00103069       0.00003130      -0.00009356      -0.00009714      -0.98243333
H        3.14798684       3.97173159       4.41340842       3.19143619      -1.96938758       0.71053900       0.00166200       0.00060341       0.00068051      -0.00037858      -0.00003591      -0.00063713      -1.49383364
H        6.87128635       2.92245398       6.40987965      -0.01484717       0.02869791      -0.00115850       0.00000876       0.00003271       0.00000005      -0.00000132       0.00000068      -0.00001692      -0.00420444
H        3.73104139       3.11098143       4.94553279       0.36623960       2.71964926      -2.77104191       0.00058929       0.00119774       0.00079983      -0.00099510      -0.00021268       0.00005057      -1.47101163
