20
Lattice="10.0 0.0 0.0 0.0 10.0 0.0 0.0 0.0 10.0" Properties=species:S:1:pos:R:3:forces:R:3:stresses:R:6:energies:R:1 energy=-66.45783948702083 stress="-0.004161851553671017 -0.0007302900852488711 0.002988126871492987 -0.0007302900852488711 -0.004332834937920759 0.002169189275217658 0.002988126871492987 0.002169189275217658 3.1887104081228724e-05" free_energy=-66.45783948702083 pbc="F F F"
H        4.97506819       5.91653787       5.47161977      -0.48625049       0.11028177       0.60343859      -0.00016815       0.00006848      -0.00221092      -0.00146874       0.00041659       0.00084588      -4.74971362
H        4.57541864       4.71259547       4.15513795       1.59966538       0.25353979      -2.44310045      -0.00297395      -0.00114452       0.00047231       0.00070350      -0.00033319      -0.00150390      -3.16328950
H        4.59979194       5.29797362       6.34922124      -1.79097110      -0.11878024      -0.32058520      -0.00022360      -0.00064903       0.00058336      -0.00072028       0.00061919       0.00026819      -3.82819799
H        3.69737055       5.81927916       6.74047292      -0.11613239      -0.27653339       0.41631518       0.00034244       0.00015208       0.00014046       0.00033321      -0.00004909       0.00005547      -1.76219593
H        5.57561590       5.84153809       6.38708857       0.55399166       0.21191026      -0.20279816       0.00071446       0.00013188       0.00053206       0.00031734      -0.00052181      -0.00016929      -2.75771524
H        5.44303531       4.93272080       5.76623869      -2.03326932      -1.38745716      -0.60589127      -0.00137226      -0.00141930      -0.00055073       0.00011686       0.00143496      -0.00000625      -4.72425575
H        4.58724725       6.39776098       6.37577217      -0.18553765       1.03704717       0.54091144       0.00052113      -0.00030410      -0.00004696       0.00015671       0.00034959      -0.00005013      -2.70084052
H        5.30756713       5.25051911       4.70853938       1.66065669      -0.55858587       0.10807977      -0.00270705      -0.00189019      -0.00208797      -0.00182307      -0.00058998      -0.00006158      -4.68700137
H        4.30375194       5.71196127       4.60087518       0.56517031       1.25457973      -0.23398784      -0.00035619      -0.00015970       0.00045412       0.00061444      -0.00057173       0.00060675      -4.05932342
H        3.89361975       5.86932306       5.65954792       1.71513250      -0.51310835      -1.83885895       0.00013434       0.00033479       0.00039914       0.00026910       0.00015334      -0.00088827      -4.25787851
H        6.28162131       5.43383965       4.24506165       0.45143310       0.66565778       1.33045820      -0.00001518       0.00018235       0.00119436       0.00028801      -0.00016390      -0.00001010      -1.71385336
H        3.24878676       5.96109266       4.74666399      -0.89305913       0.40683000       0.20947032      -0.00022183       0.00011132       0.00026006       0.00016594       0.00043005      -0.00019571      -2.25000582
H        4.42560327       4.93015751       5.32735367       1.90495731       1.68947542       0.84654683      -0.00124357      -0.00164267       0.00003123       0.00048518      -0.00007173       0.00037602      -5.39806614
H        6.15543637       4.61430554       4.99195232       0.61375037       0.09344089       0.07736562       0.00030289       0.00056750      -0.00031371       0.00058170       0.00019077       0.00030085      -3.19117628
H        3.34345139       4.99502621       5.27815254      -0.51703304      -1.45501907       1.09162205       0.00014645       0.00001020      -0.00017953       0.00028052      -0.00048915       0.00017373      -3.04531406
H        5.11226976       4.17175072       4.96961465       0.46909770       0.42991811      -0.09646916       0.00156639       0.00078386       0.00040480       0.00018010       0.00058658       0.00095077      -3.71527666
H        6.08668732       5.71094223       5.36308983      -0.32139282      -0.13571596      -1.61523384       0.00099617       0.00061674       0.00158083       0.00096453      -0.00032736      -0.00058156      -3.19775550
H        3.53611883       5.01821368       4.20191436      -1.71935306       0.94879446      -0.44322130      -0.00085929      -0.00015745      -0.00006489       0.00016236       0.00096317       0.00027298      -2.82978848
H        5.82632053       3.90616169       5.79294420      -0.09464265      -0.65252279      -0.23288221       0.00036438       0.00001125       0.00024693      -0.00018260       0.00016892      -0.00007398      -1.75596995
H        3.91697946       4.13827841       4.77624991      -1.37621338      -2.00375256       2.80882038       0.00089057       0.00006369      -0.00081306       0.00074438       0.00079290      -0.00104017      -2.67022137
