20
Lattice="10.0 0.0 0.0 0.0 10.0 0.0 0.0 0.0 10.0" Properties=species:S:1:pos:R:3:forces:R:3:stresses:R:6:energies:R:1 energy=-66.8358241323887 stress="0.001437443745215352 -0.00030064578084835884 0.0016156078649298615 -0.00030064578084835884 -0.003730803881125898 0.0017365885490432248 0.0016156078649298615 0.0017365885490432248 -0.0004112884998774225" free_energy=-66.8358241323887 pbc="F F F"
H        4.97724961       5.91136114       5.46766472       0.47402460       0.30209718      -0.07825421      -0.00159558       0.00026524      -0.00152469      -0.00089471       0.00036437       0.00060590      -4.77429784
H        4.56257539       4.69422809       4.15499286      -1.08369255       2.36671837      -1.76247100      -0.00170175       0.00005896       0.00025240       0.00110501      -0.00058819      -0.00105984      -3.21248189
H        4.57872211       5.26638525       6.31394680      -0.22421972      -1.16965381      -0.07013874      -0.00029092      -0.00083631       0.00034808      -0.00046997       0.00049640       0.00076393      -3.87184621
H        3.67746944       5.76646286       6.71415373      -0.31166687       0.02855925       0.17583424       0.00032660       0.00022271       0.00031895       0.00034694       0.00005897       0.00030799      -1.80543052
H        5.56864533       5.79984928       6.38668793       0.00964361       0.15961310       0.10820300       0.00089209       0.00008119       0.00040229       0.00022757      -0.00042123      -0.00002208      -2.77012863
H        5.43398185       4.91670621       5.73602453      -1.30043930      -1.02551342      -0.49424248      -0.00084845      -0.00123466      -0.00070279      -0.00043923       0.00111078      -0.00025687      -4.76827351
H        4.58608325       6.36194010       6.39778314      -0.40868053       0.51506056      -0.05590198       0.00075001      -0.00021870       0.00033822       0.00026881       0.00017475       0.00001955      -2.70939566
H        5.31267727       5.25739199       4.68069643       0.52451647       1.23174131      -0.53417929      -0.00185252      -0.00179554      -0.00133371      -0.00107590      -0.00030396      -0.00035062      -4.73504716
H        4.31668496       5.77029437       4.57162685      -0.59608062      -0.42464812       0.25549231       0.00157184       0.00086287       0.00102900       0.00080440      -0.00054293      -0.00023793      -3.91660076
H        3.91223809       5.85578693       5.64347160       0.15729720       1.19375105      -0.09772240      -0.00186050      -0.00043532      -0.00059803       0.00053435      -0.00044952      -0.00022550      -4.25410492
H        6.29794627       5.53866242       4.28067373       0.29529490       0.11593907       0.11333884       0.00014564       0.00017976       0.00038845      -0.00002926      -0.00016658       0.00001770      -1.73848741
H        3.21580185       5.94398083       4.81329128      -0.18400302       0.34079093      -0.08364459       0.00068851       0.00006747      -0.00059403      -0.00074475      -0.00030917      -0.00023877      -2.23735975
H        4.41974310       4.95028380       5.27049975       1.33664103       0.30495748      -0.18310506      -0.00042525      -0.00213434      -0.00005121       0.00015371       0.00071644       0.00002949      -5.58263374
H        6.18754972       4.66226444       4.96885638      -0.03405465      -0.34292744       0.02767478       0.00059858       0.00034444      -0.00017489       0.00053202       0.00004954       0.00039208      -3.19164030
H        3.32924876       4.95711550       5.38131397       0.51454826      -0.27142025      -0.31101431       0.00063018       0.00104079       0.00099620       0.00020036      -0.00017051      -0.00019086      -2.99878974
H        5.13902998       4.19200465       4.94138385       0.31327034      -1.22112299       0.65141563       0.00187602       0.00008549      -0.00041373       0.00036169      -0.00010088       0.00080226      -3.67169394
H        6.06986118       5.72525746       5.36275731       0.07627738       0.03083205       0.01261384       0.00050866       0.00036878       0.00057470       0.00050084      -0.00004983      -0.00019911      -3.25944651
H        3.52525423       5.03583991       4.29331380       1.17100707      -0.90551215       0.21438052       0.00026955      -0.00113438       0.00049018      -0.00018941       0.00133894       0.00055693      -2.98593824
H        5.88221774       3.90448733       5.72982291      -0.33046198       0.05771406      -0.11985778       0.00037162       0.00039924       0.00018132      -0.00014221       0.00017154      -0.00021195      -1.74904353
H        3.89878145       4.11967517       4.79854932      -0.39922163      -1.28697625       2.23157870       0.00138312       0.00008151      -0.00033803       0.00068633       0.00023668      -0.00080296      -2.60318388
