20
Lattice="10.0 0.0 0.0 0.0 10.0 0.0 0.0 0.0 10.0" Properties=species:S:1:pos:R:3:forces:R:3:stresses:R:6:energies:R:1 energy=-41.87615172712981 stress="0.009596499452284107 0.003554249871791659 -0.007360674936230826 0.003554249871791659 0.0018191734129168675 -0.0011346813842993554 -0.007360674936230826 -0.0011346813842993554 -0.0020502228579346764" free_energy=-41.87615172712981 pbc="F F F"
H        5.05182403       5.89526971       5.92135715      -5.39066213       0.27678185      -4.25728047       0.00197271       0.00000427      -0.00121984       0.00040101      -0.00182061       0.00043428      -2.61576861
H        4.30160108       4.02356124       4.04048468      -1.74488833      -1.06565726       1.02549623       0.00107621      -0.00056611       0.00087565      -0.00009358      -0.00070201       0.00004156      -2.17475359
H        4.46748511       5.26583355       6.68518885       1.92810428       0.14591736      -0.14126156      -0.00148167      -0.00037515      -0.00027699      -0.00040913       0.00065608       0.00085557      -3.57000535
H        3.46643535       5.31650153       7.12020929      -0.33375973       1.56116663       0.68838726      -0.00014224       0.00094696      -0.00007797       0.00001860       0.00007905       0.00070886      -1.53002176
H        5.30428097       5.97107479       6.95546711      -1.40021624      -1.34230214       3.33079364       0.00167361       0.00126193      -0.00200030       0.00054904      -0.00041533      -0.00032478      -1.93508694
H        5.46382120       4.95897297       6.32603847       1.17498398       0.18308723       0.74781993      -0.00023110       0.00054019       0.00084229       0.00093106       0.00005611       0.00019975      -2.16287013
H        4.14906317       6.31463263       6.83728394       4.97347694       0.68815226       3.39414327       0.00162499       0.00002530      -0.00060002      -0.00107218      -0.00174454      -0.00080577      -2.10555978
H        5.29086935       5.25042958       4.00004646      -2.39691662       1.98487184      -1.91563281       0.00160218      -0.00001992      -0.00020339       0.00058832      -0.00078366       0.00068318      -1.84646299
H        4.16072618       5.05300337       4.37114853       1.85359816       1.30145637      -0.51166705       0.00065253      -0.00009033       0.00044076      -0.00091001       0.00078031       0.00134089      -3.04718216
H        3.63712103       5.73253114       6.11016305       0.29904718      -3.97564145      -6.51162027       0.00119390      -0.00037364      -0.00163159      -0.00047148      -0.00157901      -0.00138741      -2.56559655
H        6.38810304       6.14764341       3.56279602      -0.81026310      -1.04295421       1.88817419       0.00059565       0.00058441       0.00084201      -0.00028064      -0.00014461       0.00051352      -1.16636469
H        2.93843454       6.88591318       3.22457285       0.03460782      -0.06093624       0.03995336       0.00002463       0.00006046       0.00002769      -0.00003902       0.00001974      -0.00003149      -0.00789185
H        4.57769445       4.91964757       5.64920534       0.48845216       1.08904699      -1.36829496      -0.00062450       0.00061744       0.00086031       0.00012964      -0.00054171      -0.00036016      -3.79520869
H        6.27505634       5.44809206       4.45479412       0.05416883      -0.25635356       0.37721451       0.00011627       0.00020854       0.00047041      -0.00039163      -0.00064319       0.00017973      -1.69317061
H        3.56976231       5.00261372       5.26611489      -4.32688593       2.79953803       4.47469388      -0.00164720      -0.00099307      -0.00163152      -0.00015482       0.00025862       0.00018898      -2.76747218
H        5.03103798       4.49658837       4.72860616       0.89677741      -2.74542469       4.24867309       0.00043258      -0.00074700      -0.00068605       0.00108610      -0.00037291       0.00046056      -2.85101017
H        6.69782181       6.46680350       4.61387025      -0.35104981      -0.01329180      -0.72360733       0.00022711      -0.00005635       0.00053105       0.00009474       0.00008023       0.00010695      -1.04808216
H        3.24769236       4.33525451       4.46341250       3.26868135      -0.73400170      -1.93037123       0.00203989       0.00010964      -0.00020674      -0.00041738      -0.00039968       0.00007452      -2.04843850
H        6.79047169       3.10751840       6.41292154      -0.06306072       0.07615886      -0.01645624       0.00004819       0.00006835       0.00001018      -0.00001274       0.00001457      -0.00005566      -0.01301494
H        4.08245959       4.03809253       5.16382972       1.84580449       1.13038562      -2.83915745       0.00044274       0.00061326       0.00158383      -0.00068059      -0.00015814       0.00073117      -2.93219010
