20
Lattice="10.0 0.0 0.0 0.0 10.0 0.0 0.0 0.0 10.0" Properties=species:S:1:pos:R:3:forces:R:3:stresses:R:6:energies:R:1 energy=-69.60349876473859 stress="1.8434368761347284e-05 -6.480302884671492e-06 -5.05947192009409e-06 -6.480302884671492e-06 -1.847597235382921e-05 -3.054215708372663e-07 -5.05947192009409e-06 -3.054215708372663e-07 8.664223761405181e-06" free_energy=-69.60349876473859 pbc="F F F"
H        4.85469929       5.98077307       5.50080089       0.00156361      -0.00085278       0.00154544      -0.00076327       0.00060314      -0.00094692      -0.00078811      -0.00077234      -0.00031807      -4.75543523
H        4.62481337       4.92565537       4.03950445      -0.01984701       0.00010429       0.00742965       0.00142770       0.00041296       0.00005027       0.00010606       0.00004980       0.00026018      -3.26016639
H        4.48577585       5.10050748       6.19139904      -0.00117812       0.00269735      -0.00129394       0.00018395      -0.00018880      -0.00032030      -0.00127545       0.00051678       0.00039656      -4.25410304
H        3.40921704       5.28200560       6.39361789       0.00411214       0.00194913      -0.00401327       0.00080714       0.00054120       0.00035163       0.00067910       0.00028656       0.00043892      -2.67736714
H        5.31782613       5.79637903       6.46794113       0.00354254       0.00215982       0.00293539       0.00144677       0.00021036       0.00037242       0.00035782      -0.00067593       0.00003371      -2.74258881
H        5.46583499       5.01318723       5.68852461      -0.02225393      -0.01632168      -0.00819088      -0.00201034      -0.00035343       0.00049250      -0.00027596       0.00002172      -0.00070532      -4.70541251
H        4.20875379       6.13282142       6.39941166      -0.00035011      -0.00275687      -0.00192353       0.00161598      -0.00009703       0.00048248       0.00019075      -0.00006926       0.00047641      -2.72997339
H        5.38215062       5.52736260       4.64326816      -0.00795820       0.02014001      -0.01832585      -0.00094499      -0.00021865       0.00105524       0.00002610       0.00079103      -0.00005849      -4.73545305
H        4.33170862       5.89403705       4.51163824      -0.00060062      -0.00082744      -0.00136639       0.00079062       0.00035298       0.00032343      -0.00006901       0.00020644       0.00024492      -3.39385291
H        3.79667461       5.69282983       5.46231483      -0.00449706      -0.00007644       0.00315536      -0.00153667       0.00030995      -0.00094718      -0.00014213       0.00107537      -0.00063943      -4.65056913
H        6.36232483       6.01290124       4.47447785       0.00202028       0.00207153       0.00040825       0.00031545       0.00022162       0.00015460      -0.00011168      -0.00019872       0.00012532      -1.72295831
H        2.83620445       5.16506890       5.40332250      -0.00093225       0.00139105      -0.00065834       0.00040845      -0.00028099       0.00099896       0.00022846      -0.00016599      -0.00002758      -2.21728169
H        4.56097154       5.00695312       5.12158230       0.02688883       0.00848058       0.00450440      -0.00614709      -0.00515244      -0.00616062      -0.00081619      -0.00010985      -0.00058449      -5.59371173
H        6.30134807       5.01354219       4.97406790       0.01002911       0.00342460       0.00524804       0.00047064       0.00048366      -0.00004461       0.00055662       0.00013299       0.00010907      -3.19504411
H        3.71878290       4.53581963       5.60274421      -0.00596240       0.00030010       0.00254500      -0.00064087       0.00124518       0.00083884       0.00055687      -0.00002937      -0.00006319      -3.72246245
H        5.37078883       4.41494171       4.71186287      -0.00239807      -0.02405351       0.01273929       0.00102325       0.00056690       0.00056272       0.00040639       0.00027942       0.00098250      -3.76838830
H        5.96110399       5.96570696       5.51491214       0.00092688       0.00189327       0.00541059       0.00052833       0.00004460       0.00100727       0.00061372      -0.00009666      -0.00018126      -3.23718984
H        3.61629097       5.01587307       4.58486582       0.01753931      -0.00815059       0.00306115       0.00081209       0.00078185       0.00095076       0.00012893      -0.00084363       0.00000844      -3.71895813
H        6.03559054       4.07881344       5.53712895      -0.00190293       0.00518313      -0.00385851       0.00045335       0.00039322       0.00004063      -0.00014972       0.00004372      -0.00011610      -1.76976736
H        4.25090121       4.07479865       4.68412510       0.00125801       0.00324443      -0.00935185       0.00177793       0.00010525       0.00074654      -0.00022287      -0.00044714      -0.00038858      -2.75281524
