20
Lattice="10.0 0.0 0.0 0.0 10.0 0.0 0.0 0.0 10.0" Properties=species:S:1:pos:R:3:forces:R:3:stresses:R:6:energies:R:1 energy=-23.399493754410116 stress="0.008247577286174416 0.00031559536614731923 -0.0033355870521792896 0.00031559536614731923 0.00750819314837119 -0.0023084984728247845 -0.0033355870521792896 -0.0023084984728247845 0.0007276942060786865" free_energy=-23.399493754410116 pbc="F F F"
H        5.21961292       6.07762999       6.70250441      -2.67918363      -0.47709121      -0.39662972       0.00099076       0.00056740       0.00016820       0.00028026      -0.00023590       0.00005905      -2.13216378
H        4.07437670       3.70172541       4.17929085      -3.03523692       1.72422430       1.29863642       0.00238071       0.00192923       0.00072010      -0.00071296      -0.00050861      -0.00002292      -1.49171230
H        4.14567603       5.83654075       6.99765192       5.50669157      -1.06043754      -0.85962156      -0.00100343      -0.00111856       0.00000973       0.00045264      -0.00025467      -0.00006636      -2.50984149
H        3.33157622       5.21970009       7.38959273      -0.91437852      -1.62122550       0.90383978      -0.00033778      -0.00038231      -0.00011491       0.00041057       0.00001928      -0.00028054      -1.10513703
H        6.22433571       5.79363153       7.08555783       0.37663268      -0.00289687       0.35830375       0.00001390      -0.00006679      -0.00008669      -0.00002169      -0.00007699       0.00006615      -1.05381808
H        5.73497794       5.15417028       6.31233149      -0.87550338       0.13467989      -0.14215815       0.00044563       0.00014196       0.00004214      -0.00000408      -0.00016836      -0.00023775      -1.55436588
H        3.90338690       6.90911610       6.95881648      -0.48771783      -0.34084720      -0.44732532       0.00088460       0.00015690       0.00009609       0.00019512      -0.00006247       0.00023600      -1.18185021
H        5.52920457       5.55756648       3.28335947      -2.24583266      -2.03408756      -0.09108959      -0.00054798       0.00031469       0.00009274      -0.00055953      -0.00054191      -0.00013225      -1.02387493
H        3.47874742       4.73741194       4.05536232       0.72988271      -3.50130184       0.79475761       0.00118855       0.00185492       0.00020661      -0.00044229      -0.00011424      -0.00011400      -1.03480122
H        3.11512509       6.09610814       6.74670606      -1.07317716       2.03888627      -0.95452474      -0.00043713       0.00004117      -0.00018003       0.00044922      -0.00033228       0.00060005      -1.53345365
H        7.10511481       6.81344807       3.19126608      -0.13284341      -0.95686575      -3.64616624       0.00028401       0.00033156      -0.00206922      -0.00026311       0.00017499       0.00034685      -0.97263059
H        2.89355653       7.11223452       3.12988395       0.00638087      -0.02589486       0.01009134       0.00000187       0.00003075       0.00000467      -0.00001198       0.00000295      -0.00000758      -0.00349392
H        4.62759244       5.27934445       6.13871411       0.10158410       1.13109954       1.31264476       0.00096284       0.00064799       0.00071443       0.00048815      -0.00008662       0.00004954      -1.68612712
H        6.40322186       6.06286769       3.69662106       1.79120305       0.69119827      -0.13528038      -0.00067604      -0.00024086      -0.00022982      -0.00069302      -0.00076507      -0.00036494      -1.50554376
H        3.52011791       3.15181491       6.09150301       0.33301287      -0.11413978      -1.88521575       0.00009928       0.00020426       0.00120453       0.00010852      -0.00016061      -0.00002061      -0.55108954
H        5.16530418       4.67456749       3.93102722      -0.89336165       0.45077524      -0.42737724       0.00123084       0.00105493       0.00039559      -0.00045036      -0.00033130       0.00079394      -0.80086241
H        6.93679015       6.85271894       4.25309179      -0.12522314       0.97852596       4.72167918      -0.00015532      -0.00029974      -0.00233280      -0.00030806       0.00020700      -0.00016739      -0.96600595
H        2.83951685       3.80540939       4.37638397       4.49041594       0.23720034      -0.03516395       0.00231153       0.00117664       0.00048442      -0.00057228      -0.00002744      -0.00010816      -1.09676869
H        6.88550791       2.88773301       6.40985204      -0.01564162       0.03081255      -0.00132581       0.00000900       0.00003492       0.00000006      -0.00000150       0.00000076      -0.00001773      -0.00461756
H        3.75801944       2.90623855       4.97799414      -0.85770386       2.71738576      -0.37807438       0.00060174       0.00112913       0.00160186      -0.00065212      -0.00007410      -0.00029576      -1.19133563
