20
Lattice="10.0 0.0 0.0 0.0 10.0 0.0 0.0 0.0 10.0" Properties=species:S:1:pos:R:3:forces:R:3:stresses:R:6:energies:R:1 energy=-69.4557213754566 stress="0.0015796395120585966 -0.0006977844997101643 -0.0001408014195246326 -0.0006977844997101643 0.0022354399861173367 -0.0011625885770817509 -0.0001408014195246326 -0.0011625885770817509 -0.000434305900922924" free_energy=-69.4557213754566 pbc="F F F"
H        4.95950510       5.97146667       5.44699391      -0.36095443       0.14663910       0.31587383      -0.00054692       0.00048066      -0.00072023      -0.00085732      -0.00083952      -0.00006238      -4.74359589
H        4.64474816       4.83727771       4.07276069      -1.03079225       0.70809705      -1.15722333       0.00145948       0.00037600      -0.00048439       0.00018825      -0.00006816      -0.00047238      -3.23181376
H        4.45287198       5.18089357       6.18934897      -0.46163999       1.26987421       0.41595481       0.00044053       0.00014108      -0.00023127      -0.00142053       0.00057732       0.00048620      -4.20120435
H        3.41370947       5.54503993       6.33841750      -0.13669159       0.12939782       0.00159381       0.00090217       0.00030542       0.00031653       0.00051883       0.00035509       0.00033045      -2.69566927
H        5.36719577       5.79433926       6.44135510      -0.08249082      -0.04441424      -0.01418849       0.00156070       0.00018700       0.00030262       0.00034507      -0.00057958       0.00002929      -2.74047184
H        5.42032515       4.95436399       5.72191390      -0.45660557      -0.47787539      -0.23743809      -0.00229445      -0.00082344       0.00013654      -0.00053181       0.00032491      -0.00048323      -4.72197412
H        4.32309677       6.25933508       6.32159328       0.17706117      -0.16003465      -0.01393896       0.00146766      -0.00000328       0.00039649       0.00028742      -0.00013899       0.00013432      -2.76014641
H        5.43211571       5.38930729       4.63976059       0.53557449      -1.43642274       1.01127077      -0.00111627       0.00048721       0.00091795      -0.00038953       0.00024140       0.00035557      -4.73096756
H        4.45431585       5.88532534       4.44503083      -0.19843111      -0.10110676       0.15122545       0.00064231       0.00041871       0.00062020       0.00008679       0.00006762       0.00014242      -3.38986633
H        3.86743470       5.85218104       5.39491386       0.71290557      -1.00269424      -0.26625884      -0.00129435       0.00082735      -0.00055686      -0.00056487       0.00085640      -0.00043251      -4.61572228
H        6.48629021       5.69493679       4.46734747      -0.30344960      -0.19742028       0.14655156       0.00049991       0.00022979       0.00020033      -0.00012319      -0.00025067       0.00014684      -1.72017838
H        2.84234424       5.46119432       5.34133638       0.05167769       0.01738335       0.17637746       0.00041952      -0.00021697       0.00094113       0.00030738      -0.00006347      -0.00013882      -2.21812559
H        4.52631732       5.02870430       5.13029944       0.57433027       0.03155285      -0.07623206      -0.00528803      -0.00469430      -0.00624253      -0.00080862      -0.00009418      -0.00050908      -5.62885038
H        6.24471863       4.75372692       5.02671415       0.70380015       0.53767035       0.21607659       0.00016758       0.00073880      -0.00009153       0.00048398       0.00016487       0.00004030      -3.19147132
H        3.61113545       4.71671596       5.60694221       0.14020036       0.26019979      -0.32186298      -0.00057505       0.00133892       0.00078890       0.00032444       0.00012676       0.00031963      -3.70835427
H        5.24785461       4.26957890       4.83896702      -0.86965743       1.17387968      -0.76419936       0.00135367       0.00118806       0.00043150       0.00001864       0.00020292       0.00073780      -3.75516796
H        6.05503397       5.80184820       5.49181268       0.05312280      -0.04178935      -0.08531679       0.00051699       0.00030878       0.00102737       0.00078906      -0.00006057      -0.00042218      -3.20904031
H        3.60587734       5.15214313       4.55791815       0.72706187      -0.28382602      -0.01492792       0.00120817       0.00052739       0.00108033       0.00027492      -0.00085127      -0.00018707      -3.69108123
H        5.86563102       3.94361697       5.70982430      -0.04724079       0.16614058      -0.24449902       0.00043365       0.00043561       0.00020354      -0.00023161       0.00005906      -0.00011400      -1.75963658
H        4.07124015       4.13798236       4.72426048       0.27221918      -0.69525112       0.76116158       0.00162236      -0.00001737       0.00052907       0.00014012      -0.00017075      -0.00059896      -2.74238357
