20
Lattice="10.0 0.0 0.0 0.0 10.0 0.0 0.0 0.0 10.0" Properties=species:S:1:pos:R:3:forces:R:3:stresses:R:6:energies:R:1 energy=36.428213382309636 stress="-0.3276808830777994 0.1849616894823508 0.26383114022141296 0.1849616894823508 -0.09319006854113304 -0.14504901380363924 0.26383114022141296 -0.14504901380363924 -0.1997856718069072" free_energy=36.428213382309636 pbc="F F F"
H        6.00866653       6.88535059       7.15749188      -0.12307076      -0.40190341      -0.21128075       0.00024778       0.00032275       0.00012939       0.00010613       0.00005058       0.00002988      -0.10189108
H        3.85330096       3.26575944       4.10206119      -1.35185782      -0.44591706       1.98380153       0.00080781       0.00084664       0.00105721      -0.00071286      -0.00013132      -0.00027916      -0.87985576
H        3.71269828       5.94097769       6.96561320    -591.01412511     322.23637841     458.05800154      -0.16786830      -0.05017764      -0.10281122      -0.07262112       0.13221523       0.09338397      21.98995092
H        3.26218286       4.58510899       7.01204894       0.91721145       2.43010100      -0.53512776       0.00059547       0.00188129       0.00013683      -0.00019179      -0.00016191       0.00044951      -0.45643901
H        7.13923720       5.18467848       7.35979800      -0.26613502       0.11572928      -0.16867959       0.00018320       0.00014225       0.00009217      -0.00000975       0.00011723      -0.00008135      -0.06250519
H        5.63017896       5.33168503       6.16260522      -1.37572654       0.56625737       0.69546636       0.00129403       0.00028765       0.00029025       0.00017194      -0.00018257      -0.00021918      -0.31964845
H        3.74771341       7.05149166       6.79665662      -0.07598823      -1.38369696      -0.15982984       0.00050905       0.00091616       0.00002946       0.00012061      -0.00003580      -0.00000164      -0.73353288
H        5.55064266       5.59429484       3.13125614       0.71405014      -0.24760772       0.45712228       0.00072929       0.00042568       0.00012599      -0.00016646      -0.00002474       0.00039723      -0.63509102
H        2.59535945       4.93694992       4.06604639       0.48558556      -1.95983420       0.18699170       0.00012962       0.00122728       0.00003772      -0.00012543       0.00001777      -0.00028549      -0.49534116
H        2.42972119       6.03533492       6.77523331       3.20156407      -0.32359682       0.36994723       0.00206616       0.00055991       0.00006095      -0.00005517       0.00021725      -0.00010473      -0.52855949
H        7.38105426       7.01249645       2.70600930       1.31314838       2.95321535      -1.77353582      -0.00022469      -0.00124847      -0.00041780       0.00078869       0.00034229      -0.00055312      -0.47934400
H        2.89978963       7.21977804       3.08460718      -0.00469743      -0.03522459       0.01514384       0.00000072       0.00004021       0.00000743      -0.00001729      -0.00000231       0.00000536      -0.00535199
H        4.28885299       5.62430301       6.51681737     588.79833616    -323.46505660    -458.23311277      -0.16782795      -0.05014079      -0.10267663      -0.07254080       0.13157041       0.09306123      22.51074750
H        6.98890942       6.15721437       3.23429050      -2.30097133      -3.30483302       1.88586178       0.00041420      -0.00111264      -0.00039352       0.00085342       0.00040077      -0.00029796      -0.62048993
H        3.59074294       2.71841276       6.37834718       0.36561656      -0.16385738      -2.34678374       0.00005199       0.00022263       0.00153597       0.00025248      -0.00024884      -0.00006671      -0.41487434
H        5.21438164       4.66950345       3.70377381       0.09651677       0.53818163      -0.32611807       0.00023461       0.00043128       0.00016648      -0.00021621      -0.00011110       0.00024511      -0.54209854
H        7.06685942       7.31992130       5.02437944      -0.03569577      -0.10269989      -0.10911134       0.00002575       0.00006201       0.00021145       0.00005277      -0.00002922       0.00002291      -0.03652570
H        2.82224205       3.78625448       4.18008538       1.11394163       1.03220556      -0.10258880       0.00082051       0.00138643       0.00013441      -0.00018835       0.00004959      -0.00063697      -0.99925273
H        6.90910573       2.78889437       6.39770624      -0.00421551       0.04177292       0.00998901       0.00000473       0.00005105       0.00000557       0.00001187       0.00000211      -0.00000556      -0.00477280
H        3.80012204       2.52156795       5.15268361      -0.45348721       1.92038614       0.30384320       0.00012515       0.00068627       0.00249220      -0.00056171      -0.00022429      -0.00010164      -0.75691097
