20
Lattice="10.0 0.0 0.0 0.0 10.0 0.0 0.0 0.0 10.0" Properties=species:S:1:pos:R:3:forces:R:3:stresses:R:6:energies:R:1 energy=-69.60340361468018 stress="3.4135218450903814e-05 -2.1340404167748225e-05 -6.616895774359972e-06 -2.1340404167748225e-05 2.16182608578538e-05 4.305667495499013e-06 -6.616895774359972e-06 4.305667495499013e-06 2.868526538128633e-05" free_energy=-69.60340361468018 pbc="F F F"
H        4.85447949       5.98094560       5.50061302       0.00095293      -0.00692442      -0.01119378      -0.00075572       0.00060402      -0.00093856      -0.00078567      -0.00077854      -0.00031574      -4.75553422
H        4.62621672       4.92497647       4.03948924      -0.01278504       0.00779988      -0.00034065       0.00142852       0.00041196       0.00004629       0.00010833       0.00005386       0.00025996      -3.25998765
H        4.48507487       5.10043476       6.19114118      -0.03330341       0.03919000       0.00585056       0.00017203      -0.00017660      -0.00031684      -0.00128058       0.00052667       0.00039257      -4.25295200
H        3.40851099       5.28337029       6.39198049      -0.01513693      -0.03006435      -0.00590017       0.00079703       0.00053160       0.00035128       0.00068156       0.00028397       0.00042676      -2.67911974
H        5.31646467       5.79693995       6.46833124       0.00088611       0.00813391       0.00548852       0.00145395       0.00020892       0.00036962       0.00035507      -0.00067698       0.00003462      -2.74211839
H        5.46522225       5.01373587       5.68929692      -0.00016399      -0.02637609      -0.01687360      -0.00202958      -0.00036499       0.00047977      -0.00027656       0.00002987      -0.00069834      -4.70594420
H        4.20710786       6.13278876       6.39837218       0.03837448       0.01144628      -0.00516734       0.00160949      -0.00010251       0.00048270       0.00019279      -0.00007114       0.00046237      -2.73169012
H        5.38314699       5.52681406       4.64391131      -0.01098321       0.02607496      -0.01500258      -0.00092766      -0.00021583       0.00105860       0.00002920       0.00078460      -0.00006032      -4.73628614
H        4.33289600       5.89377906       4.51066422      -0.00289530      -0.01163238      -0.01192299       0.00079737       0.00035794       0.00031950      -0.00006578       0.00020999       0.00025063      -3.39343212
H        3.79638730       5.69342836       5.46050500       0.01014160      -0.02839747       0.00966290      -0.00153997       0.00032034      -0.00094127      -0.00014600       0.00108191      -0.00064594      -4.64903406
H        6.36380523       6.01189437       4.47567602      -0.00958861      -0.01032340       0.01113023       0.00032058       0.00022603       0.00015821      -0.00011384      -0.00020040       0.00012792      -1.72288121
H        2.83618753       5.16547649       5.40156172      -0.00703235      -0.00530412      -0.01499060       0.00040585      -0.00028316       0.00100075       0.00023047      -0.00017138      -0.00003099      -2.21712786
H        4.56095291       5.00705069       5.12135638       0.04321792       0.01225270       0.00811821      -0.00614334      -0.00515378      -0.00616314      -0.00081246      -0.00011050      -0.00058552      -5.59385074
H        6.30202183       5.01306804       4.97653290      -0.01716709      -0.00484827      -0.00279452       0.00048096       0.00050306      -0.00004147       0.00054969       0.00013927       0.00011104      -3.19466610
H        3.71843790       4.53615886       5.60197478      -0.01893003       0.00284117      -0.00239781      -0.00064684       0.00125104       0.00084244       0.00055756      -0.00003247      -0.00006809      -3.72191804
H        5.37123859       4.41453208       4.71312553       0.00619600      -0.01224301       0.01331763       0.00102811       0.00056683       0.00056145       0.00041117       0.00027807       0.00098490      -3.76857558
H        5.96096283       5.96603041       5.51565389      -0.00320122      -0.00113724       0.01168394       0.00053273       0.00004747       0.00101047       0.00061174      -0.00010230      -0.00018256      -3.23677794
H        3.61694566       5.01531426       4.58342163       0.02339178       0.02276621       0.02941866       0.00082248       0.00079146       0.00096075       0.00013167      -0.00084684       0.00001524      -3.71842422
H        6.03411682       4.07866031       5.53986628       0.01052084       0.01264033      -0.00847055       0.00045258       0.00039716       0.00004148      -0.00015430       0.00004091      -0.00011114      -1.77000332
H        4.25158522       4.07457888       4.68403660      -0.00249448      -0.00589471       0.00038395       0.00177557       0.00010065       0.00074665      -0.00021974      -0.00044518      -0.00038869      -2.75307997
