20
Lattice="10.0 0.0 0.0 0.0 10.0 0.0 0.0 0.0 10.0" Properties=species:S:1:pos:R:3:forces:R:3:stresses:R:6:energies:R:1 energy=-28.77295285731252 stress="-0.002860969134714526 0.006638518455671519 -0.00163121857628515 0.006638518455671519 0.002340651581312567 -0.0011965747801142503 -0.00163121857628515 -0.0011965747801142503 0.0009533896518129137" free_energy=-28.77295285731252 pbc="F F F"
H        5.05387150       6.16412028       6.38348368       9.03639072      -4.86845187      -2.12460852      -0.00381477      -0.00172988       0.00024451      -0.00070992       0.00143593       0.00303129      -2.36820188
H        4.31019409       3.76206140       4.04206979       0.36648165      -0.40073254      -1.40953023       0.00086979      -0.00136643      -0.00063413       0.00075888      -0.00012400       0.00005394      -1.86228170
H        4.34023651       5.55624462       7.01622694       6.11482419       2.72273271      -5.45807710       0.00055849       0.00082985       0.00137694       0.00040569       0.00039893      -0.00099435      -2.77907005
H        3.41856181       5.18187490       7.42041372      -3.42080312      -0.38171817       0.06132844      -0.00145179       0.00031517       0.00048976      -0.00015993       0.00056726      -0.00056766      -1.07331315
H        5.76479213       5.93471434       7.25404250      -2.24475331       0.19151094      -1.05207308       0.00143506       0.00006401       0.00043528      -0.00014288       0.00059855       0.00007826      -1.24015460
H        5.55445205       5.18962025       6.44967495      -1.51103378      -1.25874934       0.17329874       0.00121663      -0.00062613       0.00033459       0.00010578      -0.00036004      -0.00001556      -1.78922804
H        4.16864197       6.63611282       6.63596238      -6.84413591       5.41561748       3.65000840      -0.00521936      -0.00066545      -0.00007082      -0.00096994       0.00113153       0.00111118      -1.47151297
H        5.37333277       5.29253697       3.42470665      -0.28202366      -0.91443871       2.72944913       0.00123547       0.00092174       0.00116687      -0.00058009      -0.00033287       0.00090209      -1.13384870
H        3.96564300       4.79060099       4.08477490      -5.20184135       2.98701464      -0.24851016      -0.00172883      -0.00091573       0.00055040      -0.00036264      -0.00086880       0.00125684      -1.67237471
H        3.37090452       5.91682731       6.52957264      -0.38504949      -4.23559202       0.53703649       0.00037608      -0.00020427       0.00078526      -0.00037927      -0.00023133      -0.00139845      -1.70286341
H        6.71853865       6.43441318       3.26488236      -1.53182162      -2.57307745      -3.61776698       0.00036896       0.00029240      -0.00199484      -0.00109427      -0.00056958       0.00035489      -0.98240098
H        2.90927653       7.00881225       3.17143528       0.01130761      -0.02374428       0.00977661       0.00000597       0.00002633       0.00000446      -0.00001084       0.00000516      -0.00001254      -0.00340797
H        4.57842593       5.26934192       5.87939602      -1.08111770       1.35517248       2.85358812       0.00134842       0.00123307       0.00251587       0.00112481      -0.00040575      -0.00012543      -1.96726655
H        6.21339555       5.74906233       4.05764835       0.37589489       1.65829486      -1.15669910       0.00115117       0.00142309       0.00077655      -0.00011938      -0.00001202       0.00116832      -1.53602323
H        3.35096490       3.99685980       5.68273803       1.77463200      -0.59687546       3.13320833       0.00050850       0.00070821      -0.00137247       0.00065554      -0.00065500       0.00008849      -1.14742449
H        4.99062417       4.61043841       4.34424651       4.65654257       0.50370671      -0.02263904      -0.00132329       0.00100347       0.00122591      -0.00042937      -0.00116459       0.00118358      -1.66472313
H        6.82820676       6.72454071       4.28894545      -0.56149850      -0.29452675       4.37602838       0.00034139       0.00062752      -0.00235473      -0.00049584      -0.00013959       0.00046772      -0.92651267
H        3.22251961       4.12087175       4.62253475       1.74922031       1.00402968      -5.76821120       0.00133519       0.00005153      -0.00179568       0.00047805      -0.00104503       0.00015123      -1.85384487
H        6.84863320       2.97938617       6.41099579      -0.01663791       0.02841463       0.00049726       0.00001077       0.00003140       0.00000001       0.00000055      -0.00000032      -0.00001839      -0.00431490
H        3.91054594       3.31153734       4.94376022      -1.00457761      -0.31858755       3.33389552      -0.00008481       0.00032074      -0.00073037       0.00072852       0.00014036      -0.00007692      -1.59418487
