20
Lattice="10.0 0.0 0.0 0.0 10.0 0.0 0.0 0.0 10.0" Properties=species:S:1:pos:R:3:forces:R:3:stresses:R:6:energies:R:1 energy=-69.47057391444832 stress="0.0015200997017034768 -0.0007257605755235689 -0.00012291857582545903 -0.0007257605755235689 0.0021809044880893016 -0.0009751316809112056 -0.00012291857582545903 -0.0009751316809112056 -0.0002384933985922378" free_energy=-69.47057391444832 pbc="F F F"
H        4.94969362       5.97625066       5.45263502      -0.12174494      -0.17646616       0.16147883      -0.00054625       0.00062648      -0.00070679      -0.00081986      -0.00086152      -0.00011893      -4.74061332
H        4.64429283       4.84210597       4.07298858      -0.75744929       0.90005844      -1.30620724       0.00140347       0.00031125      -0.00053585       0.00026080      -0.00000417      -0.00042062      -3.24199630
H        4.45493667       5.17721203       6.19154647      -0.64995038       1.08474778       0.25131243       0.00051546       0.00012068      -0.00019902      -0.00140332       0.00057563       0.00045105      -4.20169154
H        3.40727948       5.52216105       6.33774880       0.00754283       0.49807862       0.20205238       0.00098988       0.00023193       0.00025372       0.00041224       0.00036552       0.00039099      -2.69161374
H        5.36141196       5.79706561       6.44448934       0.03030873       0.00746518      -0.02299471       0.00153252       0.00017291       0.00032221       0.00034617      -0.00061888       0.00000620      -2.73629444
H        5.42566161       4.95847772       5.72356934      -0.85011988      -0.57027247      -0.40934053      -0.00212707      -0.00070223       0.00025130      -0.00048210       0.00039186      -0.00059237      -4.71798557
H        4.31109872       6.25253144       6.32883158       0.00064639      -0.26284746      -0.12906635       0.00154641       0.00001560       0.00045431       0.00030493      -0.00009587       0.00021105      -2.75284428
H        5.43036635       5.39882423       4.64289944       0.35601491      -1.46816602       0.78847030      -0.00119126       0.00049122       0.00089415      -0.00034241       0.00016720       0.00035666      -4.73402708
H        4.45111942       5.88774015       4.44880103      -0.43698707      -0.16238215       0.26234831       0.00061544       0.00044795       0.00065996       0.00004871       0.00001790       0.00018724      -3.39079950
H        3.86021522       5.84282487       5.39789578       0.86339914      -0.88905732      -0.21965512      -0.00133717       0.00080677      -0.00040086      -0.00050518       0.00085705      -0.00046589      -4.61716872
H        6.48246703       5.71250319       4.46610916      -0.35851143      -0.17357674       0.15676470       0.00052583       0.00021567       0.00020793      -0.00011313      -0.00025354       0.00015380      -1.71884991
H        2.83954636       5.44445101       5.33769646       0.10037149      -0.12516720       0.12941549       0.00042767      -0.00019831       0.00097691       0.00029825      -0.00009039      -0.00019091      -2.21501635
H        4.52922492       5.02808315       5.13196053       0.81925039       0.33325422       0.19888609      -0.00535915      -0.00469604      -0.00622859      -0.00083613      -0.00001169      -0.00046760      -5.62917031
H        6.24907821       4.76920759       5.02371848       0.62440816       0.40071384       0.20928916       0.00020928       0.00069070      -0.00011212       0.00052037       0.00016635       0.00007633      -3.19046625
H        3.61631347       4.70692178       5.60499563       0.17798482      -0.04153628      -0.53803039      -0.00055257       0.00124232       0.00072659       0.00026658       0.00018595       0.00029239      -3.70904735
H        5.25351134       4.27708267       4.83351423      -0.39165175       1.13086824      -0.57977072       0.00125053       0.00117005       0.00045244       0.00006952       0.00022010       0.00083442      -3.76375600
H        6.04688743       5.81354486       5.48996830       0.23700480       0.19585492       0.12444932       0.00049042       0.00021548       0.00096486       0.00075172      -0.00014749      -0.00048002      -3.20916399
H        3.61154289       5.14184958       4.55640859       0.48103126      -0.18167751       0.04247008       0.00114046       0.00058602       0.00107010       0.00028310      -0.00088793      -0.00015887      -3.69975593
H        5.87829795       3.94976140       5.69879121      -0.10951852       0.22144809      -0.22260142       0.00044411       0.00046493       0.00019081      -0.00022141       0.00006809      -0.00014218      -1.76010381
H        4.08881611       4.13137878       4.72294294      -0.02202966      -0.72134003       0.90072940       0.00154209      -0.00003250       0.00051946       0.00018604      -0.00016709      -0.00064850      -2.75020952
