20
Lattice="10.0 0.0 0.0 0.0 10.0 0.0 0.0 0.0 10.0" Properties=species:S:1:pos:R:3:forces:R:3:stresses:R:6:energies:R:1 energy=-69.59803554887698 stress="0.0006604864399792381 -7.465325413342567e-05 -5.670114408170886e-06 -7.465325413342567e-05 0.0006724514500381654 -0.0001867190884408082 -5.670114408170886e-06 -0.0001867190884408082 0.0006142966048110133" free_energy=-69.59803554887698 pbc="F F F"
H        4.88238960       5.97829215       5.48512580       0.03268834      -0.01637516       0.05291375      -0.00084304       0.00058748      -0.00082948      -0.00080352      -0.00079284      -0.00026045      -4.75469467
H        4.62495260       4.89852067       4.04642157      -0.18272251      -0.01872804       0.14533966       0.00149265       0.00044449       0.00009461       0.00008008       0.00002316       0.00014355      -3.25954232
H        4.47569136       5.12220688       6.19330866      -0.15257050       0.37029885      -0.06779467       0.00037875      -0.00007175      -0.00020330      -0.00129860       0.00049853       0.00039002      -4.24389596
H        3.40455618       5.35445959       6.38082949       0.13064252       0.14689479      -0.03637687       0.00090664       0.00049102       0.00034903       0.00060112       0.00028872       0.00044138      -2.68113589
H        5.33088641       5.79719125       6.46094410      -0.01257560      -0.00680577      -0.10523374       0.00146687       0.00021733       0.00039857       0.00034990      -0.00063959       0.00003383      -2.74360101
H        5.45540184       4.99685734       5.69757230      -0.14555824      -0.12694555      -0.09503375      -0.00201083      -0.00044510       0.00045919      -0.00029892       0.00004370      -0.00062948      -4.71254930
H        4.23935058       6.17083399       6.37800455      -0.05635106      -0.13028100      -0.02511923       0.00160037      -0.00004556       0.00046528       0.00022714      -0.00007663       0.00040459      -2.73713228
H        5.39563132       5.48569759       4.63976685       0.21342075      -0.10160860       0.23087694      -0.00102707      -0.00011722       0.00108217       0.00002480       0.00072947       0.00001693      -4.73823740
H        4.36402764       5.89011916       4.49299280      -0.05085177      -0.00514696       0.02091670       0.00072587       0.00034863       0.00037871      -0.00006012       0.00018632       0.00022068      -3.39503934
H        3.81414793       5.73605436       5.44492506       0.11569292      -0.36858086       0.03514085      -0.00155082       0.00047298      -0.00078539      -0.00024073       0.00103724      -0.00062251      -4.64524441
H        6.39142212       5.93696211       4.46512627      -0.04586475      -0.07485738       0.07768503       0.00034447       0.00024229       0.00018599      -0.00012547      -0.00021595       0.00012286      -1.72326656
H        2.83300645       5.24805486       5.38841925      -0.01141300      -0.01809929      -0.01160026       0.00040076      -0.00027222       0.00099111       0.00025813      -0.00016310      -0.00007048      -2.21591312
H        4.55197595       5.00864818       5.12578657       0.07076242       0.14974911      -0.02721245      -0.00600016      -0.00502849      -0.00602749      -0.00079988      -0.00012243      -0.00061025      -5.60348656
H        6.29554998       4.95138014       4.98916454      -0.09506584      -0.02888553      -0.06521550       0.00053591       0.00052284      -0.00005667       0.00053049       0.00015421       0.00016130      -3.19419079
H        3.68544397       4.58462475       5.60711252       0.06874095      -0.06397818       0.01199105      -0.00064627       0.00124874       0.00074100       0.00052122       0.00002507       0.00005126      -3.72069221
H        5.34302928       4.37371031       4.74227582      -0.07082813       0.29890585      -0.07651243       0.00125910       0.00067511       0.00056285       0.00036026       0.00031275       0.00096941      -3.76543055
H        5.98669887       5.92563966       5.50581655      -0.00448542       0.03009703      -0.02625881       0.00050263       0.00005840       0.00105917       0.00063849      -0.00007158      -0.00019358      -3.23247882
H        3.61257381       5.04713723       4.58000165       0.14278062      -0.10623303      -0.00021635       0.00089750       0.00079532       0.00094928       0.00020257      -0.00084998      -0.00006703      -3.71658255
H        5.99879708       4.04306650       5.57792993       0.00274373      -0.04642657      -0.01576691       0.00043084       0.00036591       0.00005984      -0.00015771       0.00005402      -0.00011251      -1.76780362
H        4.20622866       4.08052087       4.70598637       0.05081459       0.11700630      -0.02252303       0.00179631       0.00018225       0.00073981      -0.00019598      -0.00042675      -0.00046416      -2.74711819
