20
Lattice="10.0 0.0 0.0 0.0 10.0 0.0 0.0 0.0 10.0" Properties=species:S:1:pos:R:3:forces:R:3:stresses:R:6:energies:R:1 energy=-11.701994831032284 stress="-0.016332758039902914 0.006678830382776285 0.003199467015842309 0.006678830382776285 0.007571986176127149 -0.005245116499335531 0.003199467015842309 -0.005245116499335531 0.0012199583736245258" free_energy=-11.701994831032284 pbc="F F F"
H        5.96066598       6.77313045       7.09009591      -0.32967742      -1.06352360      -0.59138000       0.00031745       0.00070747       0.00026736       0.00032172       0.00014486       0.00015805      -0.21177790
H        3.83865441       3.26952013       4.16220350      -0.70545395      -0.73164562       2.03198699       0.00047814       0.00076618       0.00114308      -0.00075306      -0.00009614      -0.00011403      -0.94637331
H        3.64936860       5.91532424       6.77897714       5.41047490      -3.08067650       0.98157611      -0.00709561      -0.00097404      -0.00039930      -0.00095598       0.00148067       0.00253840      -1.57068223
H        3.14688072       4.74068769       7.08436146       0.90081387       3.52829418      -0.98900138       0.00073919       0.00228348       0.00020425      -0.00046514      -0.00028467       0.00032059      -0.62481933
H        7.12220793       5.19186494       7.34929249      -0.32863826       0.16985397      -0.17086389       0.00024308       0.00016399       0.00007816      -0.00002868       0.00012537      -0.00012159      -0.07127755
H        5.53928349       5.52379658       6.30785293       8.73759977       1.88132688      -0.14929990      -0.00394426       0.00051075       0.00027547       0.00036632       0.00057504      -0.00042664      -0.59099601
H        3.66822673       7.00742748       6.79490259      -0.98133316       0.80910009       0.12773179       0.00081086      -0.00042578       0.00002605      -0.00004035      -0.00010625       0.00042939      -0.78196226
H        5.71989388       5.67144820       3.13648149      -0.21731146      -1.47268296       1.05382664       0.00062583       0.00096623       0.00030672      -0.00049381      -0.00022273       0.00061334      -0.81682138
H        2.61204904       4.89110290       4.06993688      -0.05867713       0.81624671      -0.09266430       0.00007933      -0.00034470       0.00000669       0.00001955      -0.00000879       0.00001978      -0.52838940
H        2.63350463       6.07524529       6.92071592      -8.91088978       1.42449775       1.48471519      -0.00458557       0.00130299      -0.00007417      -0.00028863       0.00069499       0.00105147      -0.76799408
H        7.42366906       7.11899147       2.64151174      -0.70390335      -1.18494796       0.72773172       0.00024882       0.00067216       0.00027715      -0.00037675      -0.00023032       0.00039718      -0.21757753
H        2.89934932       7.21821718       3.08532528      -0.00391191      -0.03168623       0.01340658       0.00000056       0.00003687       0.00000660      -0.00001560      -0.00000193       0.00000455      -0.00462608
H        4.50265292       5.39885841       6.40918529      -4.44811448      -3.78215416      -0.83189673      -0.00579460      -0.00041465      -0.00027655      -0.00046973       0.00110034       0.00077571      -0.97971145
H        6.79535352       6.00160080       3.28915301      -0.04043904       0.94673551      -0.65153550       0.00059905       0.00075459       0.00029321      -0.00031936      -0.00016780       0.00052295      -0.72601225
H        3.60740712       2.71316769       6.26812301      -0.45807148       0.48746521       2.58521443      -0.00002671       0.00009111      -0.00127989      -0.00019959       0.00023148       0.00001610      -0.51127240
H        5.17640208       4.62947968       3.72577678       0.75840433       1.62813286      -0.89496959       0.00048753       0.00105972       0.00035100      -0.00054838      -0.00033156       0.00063547      -0.37038401
H        7.06446670       7.31380751       5.01817167      -0.04902563      -0.09972821      -0.08300211       0.00003125       0.00006416       0.00018836       0.00004264      -0.00002389       0.00003193      -0.03389010
H        2.83936127       3.81171822       4.17349887       1.02580147      -1.47229596       0.26890050       0.00041020      -0.00027438       0.00011475      -0.00007012       0.00006689      -0.00015022      -1.04260060
H        6.90889171       2.79124691       6.39829915       0.00250452       0.02818534       0.01116549       0.00000027       0.00003383       0.00000531       0.00001340       0.00000119       0.00000301      -0.00385004
H        3.78347249       2.57334197       5.20364579       0.39984819       1.19950270      -4.83164203       0.00004245       0.00059200      -0.00029429      -0.00098357       0.00025272      -0.00002662      -0.90097694
