20
Lattice="10.0 0.0 0.0 0.0 10.0 0.0 0.0 0.0 10.0" Properties=species:S:1:pos:R:3:forces:R:3:stresses:R:6:energies:R:1 energy=-44.146662524187654 stress="0.0007781522393555742 0.005774994593733847 -0.009472677928474964 0.005774994593733847 -0.003592709321634631 -0.002688944624357524 -0.009472677928474964 -0.002688944624357524 0.0014532656424194029" free_energy=-44.146662524187654 pbc="F F F"
H        4.99676655       5.91457258       5.81851585      -3.44615663       1.57340031      -0.05122442       0.00219245      -0.00078208       0.00050597      -0.00036862      -0.00180953       0.00000391      -2.73150451
H        4.32571379       4.10538607       4.00421186       0.28188848      -2.24141352      -0.89773418       0.00017600      -0.00095598       0.00018132      -0.00039370      -0.00020987       0.00039145      -2.21837995
H        4.46952019       5.19321854       6.60797941       1.88954808      -1.22265732       3.98112535      -0.00295932      -0.00037491      -0.00088220       0.00021294      -0.00073766       0.00180915      -3.46543275
H        3.48724189       5.39141754       7.10608350      -0.47158673      -1.09590841      -0.38278143       0.00009287      -0.00040917       0.00051899       0.00016884      -0.00012613      -0.00030612      -1.65001290
H        5.20677460       5.98710875       6.88289910       6.08860852      -3.31547671       0.77959263      -0.00236365       0.00087537      -0.00064201       0.00067894      -0.00014743       0.00060103      -2.01363573
H        5.46438941       4.99334581       6.23172801       1.69243739       0.74381195      -1.23512888      -0.00058316       0.00099712       0.00132031       0.00080328       0.00062831       0.00008970      -2.21583153
H        4.17207146       6.23232147       6.91739481      -3.21781955       2.14985094      -0.93642281      -0.00286106      -0.00042021       0.00058380       0.00033238      -0.00058015      -0.00008473      -2.21854576
H        5.38183454       5.24375605       4.13392770      -4.05196186       1.29170173      -1.28159121       0.00113374       0.00083995       0.00059662      -0.00004418      -0.00157778       0.00116598      -2.19150045
H        4.25356161       5.09239866       4.44086626       2.16128837       1.30576068       3.64192338       0.00177115      -0.00032911       0.00137624      -0.00111559       0.00020923       0.00052102      -3.55605589
H        3.72475115       5.70468612       6.05318633       0.46778078       3.07779285      -3.23925239       0.00075225      -0.00065977      -0.00147688       0.00046618      -0.00241802       0.00029174      -2.83372488
H        6.28161060       6.02854897       3.72059136      -1.34156410      -1.50851802       2.89988092       0.00095409       0.00091291       0.00125916      -0.00028636      -0.00017674       0.00081459      -1.37329245
H        2.94962778       6.84610111       3.24475743       0.02868108      -0.06593857       0.04601478       0.00001537       0.00006540       0.00003331      -0.00004395       0.00001861      -0.00002634      -0.01085758
H        4.56706944       4.96585817       5.53967766      -3.64461067       1.36893091      -1.03253421       0.00127036      -0.00193739       0.00041133      -0.00091090      -0.00008248      -0.00149549      -4.13784758
H        6.34927023       5.32355281       4.61013203       1.83669009       0.53256795       1.61318025      -0.00054168       0.00065819       0.00027910      -0.00027583      -0.00106128       0.00026446      -1.71263886
H        3.46192723       5.06479771       5.22173507       0.65721717       1.33819938       1.50175705       0.00097575      -0.00174238      -0.00153426      -0.00147353       0.00004143      -0.00002468      -2.71593594
H        5.08126947       4.38831883       4.76535036       0.42814162      -0.24200579       0.66832469       0.00105319       0.00009170      -0.00017455       0.00006233       0.00022996       0.00021496      -2.87668184
H        6.61103650       6.41114878       4.76797462      -1.04552926      -1.27134713      -1.44267710       0.00044859       0.00052357       0.00090684       0.00031454       0.00019348       0.00038928      -1.08111248
H        3.31668051       4.45574950       4.33753840      -1.35631315      -0.17087052      -4.27457964       0.00000016      -0.00046352      -0.00170683      -0.00031967      -0.00064338       0.00053881      -2.07544724
H        6.76523325       3.15273028       6.41039269      -0.07188011       0.09441761      -0.03513524       0.00005263       0.00008519       0.00002383      -0.00002916       0.00002300      -0.00006154      -0.01612159
H        4.02541140       4.13495999       5.09256848       3.11514046      -2.34229832      -0.32273756      -0.00080158      -0.00056758      -0.00012682      -0.00046690      -0.00124627       0.00067781      -3.05210264
