20
Lattice="10.0 0.0 0.0 0.0 10.0 0.0 0.0 0.0 10.0" Properties=species:S:1:pos:R:3:forces:R:3:stresses:R:6:energies:R:1 energy=-69.34883211472749 stress="0.0019964021530899556 -0.0021003415620166545 0.0004799307023112781 -0.0021003415620166545 0.0022267299967040355 -0.0003859140394734551 0.0004799307023112781 -0.0003859140394734551 0.00015304768492792488" free_energy=-69.34883211472749 pbc="F F F"
H        5.00362720       5.95240428       5.40101370      -0.28230409      -0.02637414      -0.06345577      -0.00097117       0.00041591      -0.00045277      -0.00085312      -0.00076497       0.00003624      -4.75604875
H        4.58467388       4.74572951       4.10002246      -1.49163818       1.39009099      -0.43053832       0.00142690       0.00076703      -0.00017164       0.00031292      -0.00021196      -0.00066941      -3.18850020
H        4.48524692       5.23392496       6.20009520      -0.83707985       1.60639427       0.26616753       0.00077222       0.00003536      -0.00003692      -0.00148953       0.00039957       0.00027674      -4.19214292
H        3.47661525       5.68920582       6.36282227       0.07040204       0.25574262       0.19334076       0.00109949       0.00010649       0.00016968       0.00034033       0.00032695       0.00018175      -2.70466492
H        5.44213321       5.80197839       6.38880196      -0.07205169      -0.08128061      -0.07321086       0.00140682       0.00023435       0.00033961       0.00037696      -0.00053497      -0.00005078      -2.75443203
H        5.41870923       4.92783550       5.70797903      -0.38372121       0.11497477       0.04815869      -0.00198272      -0.00094893      -0.00002715      -0.00057499       0.00031334      -0.00040420      -4.75080339
H        4.42901369       6.32447019       6.28108271       0.02979703      -0.00242295       0.01104683       0.00129675      -0.00002163       0.00034073       0.00032460      -0.00005974       0.00004768      -2.77259360
H        5.40552395       5.29207926       4.61558252       1.31035553      -0.96730745       0.99077470      -0.00194428       0.00010659       0.00070703      -0.00012697       0.00055214       0.00030970      -4.73080396
H        4.46242911       5.83505003       4.41562699      -0.34982572       0.09509884      -0.01194409       0.00048473       0.00047409       0.00070433       0.00033458       0.00003569       0.00017212      -3.38597351
H        3.90918969       5.91613412       5.38601792       1.12331638      -1.77827529      -0.33021236      -0.00133943       0.00114520      -0.00032648      -0.00059093       0.00078839      -0.00053786      -4.60686119
H        6.43856662       5.58169223       4.36810877       0.25415041       0.07046825       0.28591987       0.00018113       0.00019402       0.00036758      -0.00007503      -0.00024573      -0.00000688      -1.72613914
H        2.85705817       5.60634203       5.39423420      -0.00474086      -0.10717946       0.16494315       0.00033361      -0.00013582       0.00093117       0.00037498      -0.00000760      -0.00022098      -2.20898490
H        4.50086745       5.02226512       5.14820730       0.34302890       0.31403447       0.09369317      -0.00517459      -0.00434059      -0.00576725      -0.00053149       0.00016259      -0.00109490      -5.63607516
H        6.23458270       4.68330750       5.00809870      -0.55428518      -0.29039478      -0.15356729       0.00087326       0.00050473      -0.00017193       0.00048222       0.00016796       0.00035659      -3.18252507
H        3.58250582       4.82235696       5.67194511      -0.05458648      -0.44935931      -0.38018023      -0.00060530       0.00113010       0.00048240       0.00023358       0.00024283       0.00045551      -3.70525346
H        5.18215448       4.20571185       4.88918390      -0.38656148       1.52005484      -0.93967281       0.00236058       0.00111456       0.00021247      -0.00009010       0.00008697       0.00077672      -3.71677938
H        6.08650326       5.73600064       5.42134578       0.07073217       0.00779004      -0.41621682       0.00042283       0.00022194       0.00110407       0.00073719       0.00009199      -0.00019544      -3.23058495
H        3.56341400       5.18909405       4.60438786       1.28708258      -0.88592223       0.02862024       0.00141356       0.00078086       0.00106843       0.00043382      -0.00074104      -0.00050839      -3.65308548
H        5.85759390       3.91611578       5.72900447      -0.02772455      -0.23069788       0.03398115       0.00031828       0.00027396       0.00012129      -0.00014264       0.00008491      -0.00011417      -1.75399100
H        3.97135307       4.14827952       4.81395008      -0.04434577      -0.55543499       0.68235246       0.00162373       0.00016851       0.00055840       0.00013770      -0.00020740      -0.00091036      -2.69258910
