20
Lattice="10.0 0.0 0.0 0.0 10.0 0.0 0.0 0.0 10.0" Properties=species:S:1:pos:R:3:forces:R:3:stresses:R:6:energies:R:1 energy=-66.82046413715443 stress="0.0017770394386158216 -0.0006202836259310347 0.0015854959138389218 -0.0006202836259310347 -0.003622587310445302 0.0018808856575498534 0.0015854959138389218 0.0018808856575498534 -0.00014665457383824303" free_energy=-66.82046413715443 pbc="F F F"
H        4.97555683       5.90902436       5.47022012       0.42234421       0.20366329      -0.09588657      -0.00151047       0.00026411      -0.00163487      -0.00092474       0.00041002       0.00060505      -4.77761251
H        4.56572943       4.69431234       4.14999603      -1.12422725       2.21704525      -1.27987533      -0.00158739       0.00015199       0.00044619       0.00105449      -0.00061196      -0.00104388      -3.20910980
H        4.57906665       5.26642500       6.31571035      -0.53684932      -1.17327732      -0.04211948      -0.00016498      -0.00082631       0.00042900      -0.00038073       0.00042898       0.00065434      -3.87362877
H        3.67995125       5.77770703       6.72051434      -0.18260355      -0.22289213       0.13114527       0.00037063       0.00021182       0.00031739       0.00037320       0.00001689       0.00016988      -1.79928889
H        5.56906616       5.79744413       6.38935199      -0.06300443       0.14224431       0.01623014       0.00088830       0.00011286       0.00043509       0.00024384      -0.00038143      -0.00004265      -2.77096922
H        5.43405038       4.91344143       5.73761851      -1.61467625      -0.88446452      -0.48349001      -0.00072235      -0.00119618      -0.00063131      -0.00043972       0.00114843      -0.00031771      -4.76720774
H        4.58708179       6.36203397       6.39727107      -0.28196410       0.70281001       0.00088174       0.00067212      -0.00027383       0.00026610       0.00026172       0.00025343      -0.00002566      -2.70816592
H        5.31188108       5.25740402       4.68199307       0.39478310       1.06728342      -0.45022252      -0.00182684      -0.00177091      -0.00128826      -0.00112017      -0.00036830      -0.00026340      -4.73641474
H        4.31771579       5.77028636       4.57388269      -0.59923815      -0.47784744       0.16321862       0.00144036       0.00087680       0.00103669       0.00082282      -0.00056398      -0.00020091      -3.91711755
H        3.90869646       5.85307758       5.64691339       0.43196093       1.28548393      -0.09778631      -0.00171577      -0.00046404      -0.00053516       0.00051698      -0.00048391      -0.00022207      -4.25163623
H        6.29925302       5.54008770       4.28568941       0.25767071       0.13551672      -0.00003947       0.00017505       0.00015602       0.00032580      -0.00002420      -0.00016613       0.00002536      -1.73893563
H        3.22090352       5.94736924       4.80972525      -0.23843340       0.15903245      -0.20691046       0.00062136       0.00016251      -0.00057544      -0.00066150      -0.00029619      -0.00025922      -2.24475858
H        4.41606125       4.94861185       5.27123139       1.91312575       0.47937868      -0.11535551      -0.00036850      -0.00215153       0.00016054       0.00015490       0.00071692       0.00004294      -5.57337689
H        6.18509961       4.66053839       4.96732111       0.07709124      -0.29547494       0.00042591       0.00055811       0.00027720      -0.00022844       0.00061088       0.00005619       0.00039124      -3.18988998
H        3.32626432       4.95886719       5.37319647       0.29619161      -0.40941518      -0.29539904       0.00053007       0.00097720       0.00090624       0.00017966      -0.00018682      -0.00020460      -2.98815525
H        5.13634198       4.19135362       4.94336657       0.22063507      -1.13627384       0.43176911       0.00189939       0.00012310      -0.00037454       0.00029077      -0.00004794       0.00077211      -3.67544154
H        6.06762687       5.72303739       5.36579410       0.20867206       0.09470055       0.03801611       0.00045251       0.00035297       0.00048359       0.00050705      -0.00002514      -0.00022732      -3.25975848
H        3.52819223       5.03608182       4.28708785       1.08797274      -0.56588809       0.26805190       0.00028217      -0.00103762       0.00049030      -0.00010946       0.00131581       0.00052886      -2.98628543
H        5.88549751       3.90222904       5.72627682      -0.39702574      -0.02368055      -0.02707869       0.00036980       0.00037071       0.00014412      -0.00010222       0.00019495      -0.00023414      -1.74715176
H        3.89772547       4.12064528       4.79435036      -0.27242522      -1.29794461       2.04442461       0.00141348       0.00006054      -0.00031971       0.00062730       0.00017567      -0.00076853      -2.60555922
