20
Lattice="10.0 0.0 0.0 0.0 10.0 0.0 0.0 0.0 10.0" Properties=species:S:1:pos:R:3:forces:R:3:stresses:R:6:energies:R:1 energy=-42.54581714349069 stress="0.011470290843892946 0.0005808118069405496 -0.0027305005255086104 0.0005808118069405496 0.006192558470802017 -0.0030554383401276935 -0.0027305005255086104 -0.0030554383401276935 0.01045117317406486" free_energy=-42.54581714349069 pbc="F F F"
H        5.04043850       5.90440734       5.84968964      -2.83507228      -2.38026345       3.09806267       0.00241161       0.00130430       0.00234091      -0.00020667      -0.00099143       0.00007300      -2.63755378
H        4.29289536       4.02824522       4.03287898      -1.21448889       0.10206996       1.66430745       0.00100639      -0.00001196       0.00109107       0.00013628      -0.00051440       0.00008073      -2.19411961
H        4.47105057       5.26111803       6.66109103      -2.02928020      -0.84396182      -0.83428905      -0.00332003      -0.00068447      -0.00013362      -0.00074507      -0.00000262       0.00037434      -3.50260276
H        3.47379958       5.34052842       7.11257826       0.19116134       1.71108832       0.25026706       0.00011678       0.00093105       0.00011914      -0.00001645       0.00001612       0.00072388      -1.57292345
H        5.27514295       5.92174872       6.95690227       0.21113406       0.80876316      -1.14143155       0.00056688       0.00036734       0.00078613       0.00033460      -0.00013922      -0.00115816      -2.04307716
H        5.45380408       4.93586048       6.34024497       0.38935267       1.94246029      -2.25374844      -0.00021162       0.00154273       0.00138018       0.00015645       0.00103184      -0.00005600      -2.15309116
H        4.16478011       6.31521867       6.88645332       2.17157755      -2.63252752      -0.02108706       0.00186420       0.00117437       0.00051358      -0.00003717      -0.00085262      -0.00017176      -2.17719827
H        5.31327625       5.23996473       4.01849565      -1.51303839       1.89708882      -0.96738864       0.00208340       0.00022768       0.00016813       0.00042960      -0.00069098       0.00086141      -1.92033407
H        4.18853584       5.06730434       4.38533555       1.62188558      -0.31599166       1.19380775       0.00107089       0.00052063       0.00139355      -0.00085525       0.00056654       0.00124012      -3.19922036
H        3.66048303       5.73798048       6.09143166       2.36615086       0.14095052      -1.94939991       0.00157824      -0.00003021      -0.00102257       0.00002145      -0.00115521      -0.00061615      -2.67689174
H        6.36376139       6.12338764       3.59603285      -0.91637400      -1.41227637       2.49312168       0.00069260       0.00077622       0.00111749      -0.00040320      -0.00014632       0.00060464      -1.19277293
H        2.94117886       6.87595016       3.22928536       0.03539106      -0.06374822       0.04299630       0.00002490       0.00006270       0.00003031      -0.00004133       0.00002056      -0.00003194      -0.00875086
H        4.56018769       4.92867533       5.61285979       1.19433656       4.81811763       1.19564784       0.00039062      -0.00098837       0.00125916      -0.00069698      -0.00004375      -0.00120084      -3.86665700
H        6.30315573       5.41457795       4.50070622      -0.61627724       0.46318163      -0.25524932       0.00062600       0.00062623       0.00071915      -0.00040755      -0.00043657       0.00037010      -1.70031983
H        3.52841660       5.05727667       5.24797560      -1.37373816      -1.55566111       1.02778390      -0.00025128      -0.00004442      -0.00114572      -0.00040213       0.00037745      -0.00034545      -2.78603923
H        5.04098794       4.46843758       4.73447083       1.74700994      -2.02834086       2.17464591       0.00011416      -0.00062333      -0.00063672       0.00091075       0.00015750       0.00034211      -2.85115287
H        6.68764493       6.46256906       4.64238911      -0.68801115      -0.70567780      -0.98771736       0.00030972       0.00027616       0.00063250       0.00018096       0.00012884       0.00025574      -1.05187532
H        3.25602558       4.35777902       4.43114660       4.08587245       0.10129203      -0.10454987       0.00223570       0.00043175       0.00036767      -0.00014611       0.00014046       0.00023837      -2.06749561
H        6.78493610       3.11788044       6.41250785      -0.06773842       0.08068412      -0.01717265       0.00005140       0.00007115       0.00001099      -0.00001291       0.00001519      -0.00005874      -0.01416822
H        4.09126052       4.07106749       5.16503536      -2.75985333      -0.12724767      -4.60860671       0.00010974       0.00026300       0.00145982      -0.00125472      -0.00021187      -0.00094459      -2.92957290
