20
Lattice="10.0 0.0 0.0 0.0 10.0 0.0 0.0 0.0 10.0" Properties=species:S:1:pos:R:3:forces:R:3:stresses:R:6:energies:R:1 energy=-46.14971142151482 stress="0.0019599791981991265 0.002614988702558663 -0.004637955872227492 0.002614988702558663 0.0004786701528611091 0.000843623983373102 -0.004637955872227492 0.000843623983373102 0.0008023482208862177" free_energy=-46.14971142151482 pbc="F F F"
H        4.94176722       5.95972418       5.78505421      -3.68772925       0.76655202       1.02886112       0.00246424      -0.00026381       0.00141445      -0.00020750      -0.00186298       0.00007629      -2.96347138
H        4.35634711       4.13675181       3.96906103       5.58795432      -2.18636379      -2.19202004      -0.00153131      -0.00053975      -0.00044346      -0.00015480       0.00094635       0.00119933      -2.18173906
H        4.47187313       5.19467719       6.58597470       0.23289511       0.17810071       1.60502719      -0.00232772       0.00033364      -0.00043246      -0.00019062      -0.00018513       0.00079645      -3.50208651
H        3.48473479       5.42649166       7.02607386      -0.86640427      -0.41620287       0.11096192      -0.00013764      -0.00019185       0.00033056       0.00013664       0.00002238      -0.00002893      -1.66424201
H        5.24837960       5.93803243       6.83728709       1.20336984      -0.85234671       0.57660483       0.00008931       0.00035196      -0.00021406       0.00052023      -0.00025467      -0.00016927      -2.15914906
H        5.45551226       5.03251720       6.14612005       1.94730927       0.57922388      -1.58352801      -0.00044192       0.00089249       0.00141129       0.00056381       0.00028714       0.00004492      -2.40480145
H        4.18309304       6.27147404       6.84508637       2.14899884      -0.64995189      -1.46273880       0.00015618       0.00047206       0.00076225       0.00044501      -0.00086786      -0.00069516      -2.35669162
H        5.38583691       5.27275322       4.29439410      -0.65965415       0.17740951       1.37278324       0.00045095       0.00058680       0.00134780       0.00030838      -0.00041115       0.00062807      -2.55914173
H        4.30168088       5.11692840       4.45713769      -0.35817983       0.44064846       0.55836252       0.00027703       0.00024814      -0.00049838      -0.00043029      -0.00008389      -0.00030561      -3.65033141
H        3.74851667       5.73178662       5.98386574       2.63103191       0.80772049      -3.28844975       0.00162364      -0.00007844      -0.00074637       0.00044372      -0.00156769      -0.00014996      -3.07197074
H        6.20573097       5.94730441       3.92523213      -0.53404868       0.33365981      -0.55984442       0.00020685      -0.00009606      -0.00017773       0.00013695      -0.00022702       0.00020246      -1.55057324
H        2.96008360       6.81617562       3.26180772       0.03394411      -0.08063224       0.05376414       0.00001779       0.00007906       0.00003735      -0.00005039       0.00002124      -0.00003085      -0.01423389
H        4.54416344       4.99196527       5.50842033      -2.87507203      -0.08945742       0.73130358       0.00123985      -0.00135603      -0.00118563      -0.00026027      -0.00106147      -0.00108506      -4.29135549
H        6.40997337       5.21316808       4.73011078      -0.82523345      -0.57587838       1.63272039       0.00082817       0.00036107       0.00015307       0.00029034      -0.00053685       0.00041372      -1.76895967
H        3.43537631       5.06064568       5.17440958       1.34937083       0.94054649       0.77134130       0.00133715      -0.00096703      -0.00016206      -0.00059875       0.00015060       0.00018366      -2.74808619
H        5.09132366       4.32883249       4.80777528       1.00603690       1.95791648      -0.55256344       0.00053931       0.00083549       0.00080681       0.00024026       0.00080281      -0.00029550      -2.88904599
H        6.50857049       6.32325152       4.93603088      -0.93579485      -1.14591976       0.09867135       0.00062087       0.00063955       0.00021023       0.00005479      -0.00009925       0.00042045      -1.18208075
H        3.38645281       4.52507694       4.21061859      -4.76935733       1.68466395      -0.85927371      -0.00191285      -0.00051695      -0.00082231      -0.00018060       0.00036062       0.00099493      -2.07537991
H        6.74142591       3.18981839       6.40387808      -0.07727711       0.10519324      -0.04937419       0.00005582       0.00009346       0.00003288      -0.00003973       0.00002913      -0.00006389      -0.01955957
H        4.03091944       4.15260258       5.01917269      -0.55216018      -1.97488200       2.00739077      -0.00159573      -0.00040511      -0.00102190      -0.00018355      -0.00010026       0.00047893      -3.09681178
