20
Lattice="10.0 0.0 0.0 0.0 10.0 0.0 0.0 0.0 10.0" Properties=species:S:1:pos:R:3:forces:R:3:stresses:R:6:energies:R:1 energy=-64.96508989248822 stress="0.0015828486442692107 -0.0022455081335759925 0.0011456220346445127 -0.0022455081335759925 -0.002949296655509055 0.000980570697292682 0.0011456220346445127 0.000980570697292682 -0.003402243287850078" free_energy=-64.96508989248822 pbc="F F F"
H        4.93215910       5.96557866       5.48605546      -1.14818268       0.36116771       0.54630655       0.00136134      -0.00019758      -0.00045365      -0.00145369       0.00058345       0.00012771      -4.62529692
H        4.72199588       4.59394805       4.18597251      -0.04313602      -0.38979137      -2.96130664      -0.00205931      -0.00041537      -0.00050857       0.00031649      -0.00132139      -0.00162519      -2.98133633
H        4.62660935       5.39112511       6.43071379      -2.35916990       1.57274012       2.38224979      -0.00150327      -0.00128893      -0.00052480      -0.00173076       0.00106800       0.00042663      -3.54033637
H        3.63511633       5.77929610       6.69995890       0.14001100       0.77522252      -0.65686515       0.00024793       0.00036564       0.00063759       0.00019663      -0.00034144       0.00048627      -1.75251880
H        5.57144421       5.97111211       6.37427747      -0.70734137       0.20404793       0.20626964       0.00103731       0.00073370       0.00014122       0.00056199      -0.00033391      -0.00053831      -2.71073148
H        5.43702500       4.97161235       5.87128212       1.03969112      -0.36509643      -0.72566621      -0.00142229      -0.00009419      -0.00115642      -0.00034371       0.00157147      -0.00002001      -4.66076185
H        4.48758803       6.47497595       6.36476024       0.22924746      -0.58478521      -0.35575038       0.00177691       0.00008724       0.00042618       0.00039343       0.00009696       0.00001824      -2.62101206
H        5.29474798       5.22483579       4.81128381      -0.44120428       1.26087211      -0.72075661      -0.00282045      -0.00356899      -0.00316014      -0.00209411      -0.00085270      -0.00058725      -4.68078797
H        4.26586280       5.59077824       4.57521424       1.55126283      -0.10608819      -0.59376602       0.00071651       0.00173164       0.00084758       0.00216393       0.00015719       0.00022517      -4.26666057
H        3.81963493       5.93797738       5.61486076       3.60414557      -0.87384570      -0.98658272       0.00157767       0.00050135       0.00217759       0.00015732       0.00054150      -0.00084582      -3.67041659
H        6.25799510       5.40858862       4.33573737       0.92493050       0.11634999      -0.52176449      -0.00008733       0.00020116       0.00023045       0.00004397       0.00010193       0.00005149      -1.76293920
H        3.24875937       5.79282799       4.19127935      -0.26587815       0.95924168       0.06139917       0.00003244      -0.00013750       0.00044917       0.00026244       0.00029216      -0.00003737      -1.78376164
H        4.40584328       4.99931752       5.45654314       0.11662046      -2.39708229       0.26943064      -0.00036207      -0.00237717      -0.00224041       0.00033472      -0.00120975      -0.00040151      -5.09363300
H        6.14862808       4.60119583       5.10228308      -0.27224811       0.38107142       0.53126897       0.00065750       0.00079393       0.00001647       0.00054428       0.00001000       0.00030398      -3.20384857
H        3.38164261       5.10147583       5.04084252      -0.35828670      -1.06269044       0.56795530       0.00040328      -0.00082664       0.00005421       0.00043646      -0.00015518       0.00000656      -3.29664805
H        5.08588265       4.19439242       5.14513406       1.33215677      -1.20251586       1.50974509       0.00121673       0.00009505      -0.00012412       0.00024176       0.00032376       0.00024646      -3.82452425
H        6.07350595       5.72510279       5.39447942      -0.42736052       0.49446387       0.58443546       0.00109334       0.00073541      -0.00014437       0.00030626      -0.00041910      -0.00075301      -3.19847361
H        3.67127823       4.77832832       3.99857871      -1.91996910       2.46027204       0.30721398      -0.00097254       0.00009662       0.00056608       0.00093404       0.00021190       0.00088949      -2.65691365
H        5.84494307       3.94149389       5.95612552      -0.97646614       0.65920572      -0.99746491       0.00061696       0.00056767       0.00056252      -0.00032507       0.00039672      -0.00031394      -1.74123255
H        3.98109964       4.18601477       4.87212843      -0.01882274      -2.26275963       1.55364853       0.00007220       0.00004765      -0.00119881       0.00003419       0.00042405       0.00009490      -2.89325643
