20
Lattice="10.0 0.0 0.0 0.0 10.0 0.0 0.0 0.0 10.0" Properties=species:S:1:pos:R:3:forces:R:3:stresses:R:6:energies:R:1 energy=-69.60351267203531 stress="-6.571065924684922e-06 -4.819943003934509e-06 2.4808998832124824e-06 -4.819943003934509e-06 1.2888212815695262e-06 -4.17588238622035e-06 2.4808998832124824e-06 -4.17588238622035e-06 1.436404522507261e-06" free_energy=-69.60351267203531 pbc="F F F"
H        4.85537733       5.98077507       5.50062428       0.00318665      -0.00156768      -0.00071271      -0.00076085       0.00060284      -0.00094381      -0.00078912      -0.00077322      -0.00031881      -4.75520965
H        4.62456934       4.92543387       4.03957368       0.00011091       0.00110435       0.00484718       0.00142630       0.00041379       0.00004881       0.00010584       0.00005594       0.00025731      -3.26028674
H        4.48544731       5.10093635       6.19136828      -0.00278392       0.00142898       0.00059632       0.00017924      -0.00019218      -0.00032062      -0.00127745       0.00051566       0.00039553      -4.25392033
H        3.40902859       5.28348314       6.39324495      -0.00060464       0.00272260       0.00040446       0.00080677       0.00053951       0.00034981       0.00067878       0.00028869       0.00043884      -2.67731634
H        5.31806725       5.79600865       6.46792317       0.00351194       0.00183008       0.00434159       0.00144513       0.00021025       0.00037131       0.00035939      -0.00067397       0.00003085      -2.74284127
H        5.46547214       5.01238709       5.68875885       0.00100313      -0.00185472      -0.00340629      -0.00201883      -0.00034669       0.00049235      -0.00027893       0.00001578      -0.00070332      -4.70475320
H        4.20936275       6.13354858       6.39903037      -0.00117287       0.00035245       0.00145494       0.00161619      -0.00009903       0.00048099       0.00019046      -0.00006889       0.00047487      -2.72999858
H        5.38251880       5.52672730       4.64313605       0.00021373       0.00520892      -0.00085891      -0.00094162      -0.00020621       0.00106499       0.00002703       0.00079407      -0.00005782      -4.73503106
H        4.33242334       5.89432017       4.51136370       0.00182481      -0.00314295       0.00031049       0.00079051       0.00035379       0.00032502      -0.00006895       0.00020692       0.00024398      -3.39379360
H        3.79705548       5.69375955       5.46198079       0.00180382       0.00115741      -0.00138088      -0.00153638       0.00031060      -0.00094907      -0.00014311       0.00107545      -0.00063823      -4.65062213
H        6.36318386       6.01148077       4.47488908       0.00123584       0.00022005       0.00259445       0.00031604       0.00022224       0.00015517      -0.00011205      -0.00019922       0.00012520      -1.72292463
H        2.83614372       5.16683091       5.40278456      -0.00107678       0.00165743       0.00092069       0.00040834      -0.00028087       0.00099922       0.00022895      -0.00016552      -0.00002821      -2.21726725
H        4.56091667       5.00720168       5.12158937      -0.00398778      -0.00412460      -0.00213476      -0.00615682      -0.00515157      -0.00616572      -0.00081647      -0.00011661      -0.00058164      -5.59338951
H        6.30115289       5.01211743       4.97442704       0.00229402       0.00436641       0.00306996       0.00047483       0.00048354      -0.00004396       0.00055579       0.00013347       0.00010925      -3.19519860
H        3.71813035       4.53690581       5.60265656      -0.00235492      -0.00361555       0.00029177      -0.00064023       0.00124342       0.00083494       0.00055522      -0.00003108      -0.00006055      -3.72281922
H        5.37010146       4.41409342       4.71231047      -0.00464018      -0.00379658      -0.00182262       0.00102580       0.00057416       0.00056203       0.00040303       0.00028190       0.00098184      -3.76847321
H        5.96172527       5.96446847       5.51525201      -0.00309554      -0.00361496      -0.00600822       0.00052820       0.00004664       0.00100897       0.00061514      -0.00009243      -0.00017917      -3.23745283
H        3.61639676       5.01669766       4.58468194      -0.00002506      -0.00270897       0.00092954       0.00080421       0.00077899       0.00094588       0.00013048      -0.00084191       0.00000958      -3.71929562
H        6.03469561       4.07766709       5.53755316       0.00099869       0.00196796      -0.00029438       0.00045173       0.00039227       0.00003927      -0.00014895       0.00004290      -0.00011559      -1.76964235
H        4.24999273       4.07513455       4.68436222       0.00355815       0.00240937      -0.00314261       0.00177485       0.00010582       0.00074584      -0.00021926      -0.00044545      -0.00038873      -2.75327655
