20
Lattice="10.0 0.0 0.0 0.0 10.0 0.0 0.0 0.0 10.0" Properties=species:S:1:pos:R:3:forces:R:3:stresses:R:6:energies:R:1 energy=-56.29707787708017 stress="-0.009893093210361423 -0.0071151840401523425 -0.011329152358580702 -0.0071151840401523425 -0.01811146187241216 -0.006243900308817791 -0.011329152358580702 -0.006243900308817791 -0.004087976486194134" free_energy=-56.29707787708017 pbc="F F F"
H        4.80497625       6.06383757       5.64331790       2.89859018       3.90374574       3.47050058       0.00086566      -0.00147245       0.00012010      -0.00154638      -0.00063729      -0.00128013      -4.04343378
H        4.76936575       4.13353663       4.07028764      -5.44422285      -1.07133415      -3.45754568       0.00104208       0.00029277      -0.00130387      -0.00031482      -0.00180731      -0.00025532      -2.17353893
H        4.53905398       5.26908090       6.50429290       1.75215317       2.46442655      -3.10673594       0.00179686       0.00128369       0.00141164      -0.00088942      -0.00026203      -0.00008926      -3.48946443
H        3.50603166       5.63393904       6.71419188       0.66717121      -0.09905796      -0.26376311       0.00057903       0.00024703       0.00034321       0.00032634      -0.00036597       0.00012896      -1.75607979
H        5.46723610       5.91880937       6.51229634      -1.58990633       2.94050695       0.81625220       0.00189094      -0.00066026       0.00057013      -0.00056047      -0.00067358      -0.00009572      -2.64652251
H        5.48252167       5.07484097       5.84606250      -3.86074580       2.94537677      -1.93960774      -0.00053431      -0.00298341      -0.00000964      -0.00066246      -0.00119469       0.00051051      -4.48836554
H        4.35548695       6.37267166       6.62857189       1.18397190      -2.94131986      -2.77926719       0.00189108       0.00108268       0.00137816       0.00094516       0.00018131      -0.00026651      -2.41753463
H        5.27991644       5.50793588       4.83282762     -10.80695162      -8.37791113     -14.99156373      -0.00302077      -0.00300503      -0.00342948      -0.00225457      -0.00225967      -0.00279201      -3.91375618
H        4.25785276       5.07566579       4.37659441       1.85588735      -1.32122628       1.02291417       0.00254509       0.00200583       0.00016718      -0.00038735       0.00062252       0.00015117      -3.51211238
H        3.71870495       5.82056682       5.64312126       0.85846237       0.79716956       1.47454224       0.00063266       0.00050773       0.00175248       0.00050291       0.00124837       0.00042030      -2.95489597
H        6.29601710       5.74808902       4.41077417      -0.24204261       3.57344082      -3.01626572       0.00060480      -0.00166214      -0.00079664       0.00088847      -0.00010404       0.00017613      -1.65319659
H        3.18784558       6.35918121       3.62143463       0.32001336      -0.45140076       0.39541315       0.00017792       0.00032779       0.00027106      -0.00022319       0.00016785      -0.00019568      -0.10674024
H        4.48186019       5.08341737       5.43042455      -0.51149621      -5.89405551       2.59654264      -0.00451041      -0.00575614      -0.00358521      -0.00095409      -0.00083365      -0.00117741      -4.70695256
H        6.20200440       4.84443390       4.97162881       4.50994262       2.19398046       4.93716154      -0.00229871      -0.00107743       0.00023684       0.00197310      -0.00040342      -0.00266715      -2.86492376
H        3.46765761       4.82979636       5.14632628      -8.52904051       6.84174807      -1.13653449      -0.00308344      -0.00177253       0.00149802       0.00056809      -0.00023889       0.00253309      -2.60199015
H        5.24138583       4.42917871       4.96749169      -2.90754859      -2.67053666       6.53264882      -0.00390816      -0.00163030      -0.00154692      -0.00113346      -0.00007046      -0.00295666      -3.71212428
H        5.94310901       5.98513213       5.43075258       9.65967219       7.07606099      13.07086879      -0.00236123      -0.00067772      -0.00255287      -0.00206497      -0.00418080      -0.00306775      -2.71324145
H        3.59473270       4.17282981       4.18329952       1.18292240       2.18780295      -0.34991042       0.00124019       0.00087730       0.00004373       0.00086428      -0.00057433       0.00032823      -2.05584856
H        6.09108590       4.20776263       5.89358153       1.28769840      -3.66711437      -1.96944189       0.00016839      -0.00137826       0.00117525      -0.00029062       0.00079920       0.00103447      -1.53465111
H        4.20491679       4.09927195       5.08023280       7.71546936      -8.43030217      -1.30620822      -0.00361075      -0.00266061       0.00016886      -0.00103045      -0.00074227       0.00244553      -2.95170503
