20
Lattice="10.0 0.0 0.0 0.0 10.0 0.0 0.0 0.0 10.0" Properties=species:S:1:pos:R:3:forces:R:3:stresses:R:6:energies:R:1 energy=-64.7908274227463 stress="0.002017175441523998 -8.542767149519611e-05 0.003046948621900651 -8.542767149519611e-05 -0.003597997017623109 -9.957853067385204e-05 0.003046948621900651 -9.957853067385204e-05 -0.001983863059491685" free_energy=-64.7908274227463 pbc="F F F"
H        4.93481928       5.96944609       5.49073576      -1.50550293       0.40679005       0.14179175       0.00116596      -0.00014602      -0.00049045      -0.00135660       0.00054653       0.00020306      -4.61155976
H        4.71763413       4.59322951       4.18667136       1.07170046       0.22549099      -1.26806853      -0.00173288      -0.00008490       0.00011390       0.00046000      -0.00094334      -0.00130565      -3.03246467
H        4.62955326       5.39045128       6.42751459      -4.24843174       2.16579352       3.12638238      -0.00222681      -0.00133489      -0.00070413      -0.00183773       0.00149057       0.00059553      -3.52328025
H        3.63755663       5.77393532       6.70082825       0.14094111       0.80072701      -0.56064525       0.00025437       0.00037617       0.00058526       0.00019544      -0.00033037       0.00049982      -1.75076373
H        5.56821139       5.97047082       6.37916744      -0.27631029       0.68676746       0.83792161       0.00076961       0.00056095      -0.00013410       0.00048872      -0.00034385      -0.00063611      -2.70819557
H        5.43285074       4.97502484       5.87728909       3.32552860      -2.29670609      -1.65725101      -0.00171506       0.00029356      -0.00153601      -0.00059445       0.00178919       0.00009408      -4.62937739
H        4.48750058       6.47763604       6.37182902       0.27770758      -0.98476938      -0.47187483       0.00179577       0.00026876       0.00048885       0.00040908       0.00006783      -0.00000025      -2.62154086
H        5.29949374       5.22552149       4.82087662      -2.20428930       0.64408712      -2.46020033      -0.00292016      -0.00333454      -0.00317282      -0.00163519      -0.00049138      -0.00018287      -4.69593120
H        4.27273709       5.59205165       4.55800256       0.26609445      -0.38378406       0.37614416       0.00161052       0.00187799       0.00145591       0.00183974       0.00040999       0.00018474      -4.24839149
H        3.82511875       5.93700131       5.61817614       3.40492363      -0.78655313      -1.08952956       0.00147118       0.00046233       0.00218699       0.00021914       0.00052044      -0.00075825      -3.64065647
H        6.25414771       5.41510897       4.33627072       1.08011942       0.46105796      -0.29221504      -0.00017770       0.00016640       0.00040721       0.00019159       0.00012809       0.00000038      -1.75718636
H        3.23471966       5.75856381       4.15666894      -0.27016321       3.26841240       0.38604869       0.00037871      -0.00131211       0.00024844       0.00012260       0.00053021       0.00037855      -1.73700692
H        4.40557041       5.00226281       5.44989584       0.27793987      -1.50465047       0.15176741      -0.00043023      -0.00240433      -0.00189293       0.00007936      -0.00106904      -0.00047438      -5.10801065
H        6.15325674       4.61237770       5.10481249      -0.32951599      -0.59777263       1.77657969       0.00061312       0.00085103       0.00031561       0.00049346      -0.00026674       0.00055205      -3.18747761
H        3.38053060       5.10992024       5.03158624       0.03898889      -0.65359787       1.13494474       0.00057596      -0.00087556      -0.00017294       0.00045645      -0.00017454       0.00019265      -3.29231522
H        5.08951351       4.19305995       5.15304283       1.05181558      -0.75190412       0.99250383       0.00168255       0.00025204       0.00028860       0.00008244       0.00053852       0.00020109      -3.81441738
H        6.07196464       5.73551196       5.40457334      -0.31939783      -0.04943508      -0.07139823       0.00107817       0.00084415       0.00003453       0.00029207      -0.00043577      -0.00065128      -3.20361136
H        3.66667332       4.77558469       3.99757893      -0.79318815       0.06456233      -0.42093001      -0.00120152      -0.00106594       0.00035064       0.00072483       0.00031464       0.00142416      -2.62850212
H        5.85569018       3.93066737       5.96529740      -1.34337330       2.21811973      -1.89545004       0.00079159       0.00125318       0.00090527      -0.00060263       0.00039640      -0.00047323      -1.72304023
H        3.97421925       4.19215187       4.87669333       0.35441314      -2.93263574       1.26347859       0.00023402      -0.00024629      -0.00126171      -0.00012792       0.00036957       0.00007049      -2.87709817
