20
Lattice="10.0 0.0 0.0 0.0 10.0 0.0 0.0 0.0 10.0" Properties=species:S:1:pos:R:3:forces:R:3:stresses:R:6:energies:R:1 energy=-55.629295609433704 stress="0.0003096773559769377 0.0046523865511499205 0.0027247021898427204 0.0046523865511499205 0.004270130011564808 -0.0031734739238227514 0.0027247021898427204 -0.0031734739238227514 0.0016726425275234915" free_energy=-55.629295609433704 pbc="F F F"
H        4.88544162       6.00111671       5.60558800      -0.29007646       0.84401720      -0.18786718      -0.00201419      -0.00029528      -0.00090285      -0.00088945      -0.00011015       0.00010587      -4.28043595
H        4.52948709       3.98726852       3.99258254       4.62487573      -1.89779645       1.82168850      -0.00107862      -0.00074387       0.00147727       0.00031794       0.00068542       0.00099624      -2.09279310
H        4.50923689       5.26929048       6.42901181       0.74408257       1.47355575       0.94923291       0.00043255       0.00020409      -0.00081621      -0.00128607      -0.00007338      -0.00001623      -3.63344948
H        3.54726666       5.69536460       6.77283461      -0.48234579      -0.18563686      -0.34831743       0.00003641      -0.00005607       0.00052769       0.00019703      -0.00017454       0.00001449      -1.70829083
H        5.41146385       5.90363335       6.57041289      -0.11530723      -0.89587459       0.67123765       0.00011577       0.00035270      -0.00003608       0.00060431       0.00010943      -0.00005357      -2.73879223
H        5.43478649       5.04741291       5.82187999       0.38921466      -0.68732893      -0.73989571      -0.00110365       0.00060698       0.00189905       0.00041347      -0.00010520      -0.00054208      -4.18497519
H        4.39309644       6.37247091       6.51498290      -0.21671260       0.44490699       0.12775331       0.00009604       0.00002298      -0.00002777       0.00029604       0.00029849      -0.00008148      -2.67193293
H        5.28669528       5.49090426       4.72872372      -0.91638246      -1.24633760       2.84717716       0.00134351       0.00032781       0.00198130      -0.00041580       0.00041905       0.00127003      -4.08528349
H        4.34578972       5.00614290       4.32836191       0.49746468       0.68573926       0.10416734       0.00145028       0.00029144      -0.00089019      -0.00098429       0.00015626       0.00007120      -3.55220505
H        3.80542065       5.85424349       5.69505155      -1.26582457      -1.11385764       0.63500725      -0.00005881       0.00057344       0.00132257       0.00029148       0.00086032       0.00005835      -3.22968728
H        6.21375848       6.10197944       4.56260628      -0.46390233      -1.48762945      -0.63380132       0.00057508       0.00091722      -0.00042362      -0.00037593      -0.00018823       0.00024469      -1.67951464
H        3.03604822       6.64030525       3.38546030       0.09256745      -0.15188036       0.13628020       0.00005840       0.00012953       0.00010976      -0.00009672       0.00006382      -0.00006723      -0.03067134
H        4.44637213       5.02374745       5.39220174       1.57206003      -0.74501186      -0.81850529      -0.00326064      -0.00234763      -0.00509182      -0.00130610      -0.00181850       0.00060880      -4.64129144
H        6.25202368       5.06703799       5.07032953      -1.48541600      -1.24847447      -1.31059803       0.00135050       0.00080013       0.00010366      -0.00030594       0.00015745       0.00075524      -2.57093725
H        3.43561237       4.99043899       5.01253469       0.16785731       0.51545687       0.71967413       0.00009749       0.00129575       0.00045168       0.00025146      -0.00046032      -0.00031173      -2.70583783
H        5.19113593       4.39498478       4.88737601      -0.37144430       1.54858427      -0.90890268       0.00272364       0.00130354       0.00183633       0.00068639       0.00152983       0.00095128      -3.53406119
H        5.97867136       5.98172499       5.62514849       0.40382893       0.79344827      -0.25802693      -0.00033888      -0.00055128      -0.00074994       0.00053042       0.00114119       0.00036796      -3.06005613
H        3.50589965       4.28774098       4.16569521      -3.02162672       0.42716205      -0.18676994      -0.00139691      -0.00030906      -0.00023563      -0.00020284       0.00057004       0.00066844      -2.11316481
H        6.55781202       3.48039000       6.28801235      -0.27181506       0.41391338      -0.24185074       0.00017506       0.00033314       0.00013793      -0.00016736       0.00010981      -0.00019289      -0.08425747
H        4.12574306       4.03377975       5.05871639       0.40890217       2.51304414      -2.37768319       0.00110664       0.00141458       0.00099952      -0.00073152      -0.00044609      -0.00019501      -3.03165799
