20
Lattice="10.0 0.0 0.0 0.0 10.0 0.0 0.0 0.0 10.0" Properties=species:S:1:pos:R:3:forces:R:3:stresses:R:6:energies:R:1 energy=-69.34314750820593 stress="0.0018029213149295276 -0.0020459658497405777 0.0002481411256613501 -0.0020459658497405777 0.002365617596268177 -0.000343079480544571 0.0002481411256613501 -0.000343079480544571 0.00039558584219555706" free_energy=-69.34314750820593 pbc="F F F"
H        5.00501558       5.95119503       5.39978841      -0.17359620       0.16881980       0.06392646      -0.00102546       0.00032469      -0.00043347      -0.00086816      -0.00080106       0.00000810      -4.75295303
H        4.58423572       4.74445116       4.10106276      -1.67759910       1.34250864      -0.43516590       0.00136546       0.00076041      -0.00015272       0.00030380      -0.00026430      -0.00070138      -3.18928574
H        4.48430005       5.23455305       6.20291208      -0.60216896       1.67127699       0.07402829       0.00085371       0.00007218       0.00007706      -0.00147162       0.00036479       0.00027231      -4.18818997
H        3.47657056       5.69460780       6.36142539       0.12485545       0.18593879       0.22459589       0.00110261       0.00012822       0.00014688       0.00036269       0.00031473       0.00016962      -2.70562117
H        5.44475845       5.80306180       6.38770465      -0.16262943      -0.07643420      -0.09419914       0.00145988       0.00022312       0.00035088       0.00035795      -0.00053047      -0.00002122      -2.75199370
H        5.41845102       4.92871768       5.70910664      -0.31353358      -0.09252892      -0.10088803      -0.00189197      -0.00085818       0.00003003      -0.00056249       0.00028352      -0.00039718      -4.75567792
H        4.43196430       6.32564080       6.28054296       0.04322937      -0.01865592      -0.02137322       0.00129992      -0.00001507       0.00035060       0.00033452      -0.00007003       0.00004239      -2.77341066
H        5.40395890       5.28881040       4.61437573       1.57904389      -0.85996513       1.09476200      -0.00206363       0.00007631       0.00069257      -0.00013361       0.00053348       0.00030504      -4.72642835
H        4.46373884       5.83503103       4.41522608      -0.42561464       0.07560372      -0.06005438       0.00045457       0.00048752       0.00068465       0.00033021       0.00002450       0.00019025      -3.38544287
H        3.91100564       5.91935939       5.38531001       0.99897996      -1.88492510      -0.35641299      -0.00133888       0.00119714      -0.00032376      -0.00059362       0.00080211      -0.00052242      -4.60065245
H        6.43683331       5.57761386       4.36491005       0.25833677       0.06084263       0.24892078       0.00018376       0.00019458       0.00034843      -0.00007855      -0.00023954      -0.00000628      -1.72647707
H        2.85908423       5.60656293       5.39409447      -0.06725072      -0.01675674       0.14666859       0.00032430      -0.00015859       0.00088380       0.00037369      -0.00001268      -0.00018805      -2.21213431
H        4.50053599       5.02326994       5.14955729       0.24037524       0.25902693       0.18864846      -0.00525978      -0.00440937      -0.00565666      -0.00051764       0.00016946      -0.00115419      -5.63632819
H        6.23257947       4.68119339       5.00773101      -0.56953420      -0.30563724      -0.14082001       0.00089111       0.00049969      -0.00017777       0.00049519       0.00015706       0.00037419      -3.18160096
H        3.58318748       4.82359165       5.67445129      -0.10235193      -0.41173617      -0.40404620      -0.00066208       0.00114942       0.00051104       0.00022516       0.00022822       0.00046574      -3.70201976
H        5.17781991       4.20340319       4.89143494      -0.31857256       1.63029498      -0.89460432       0.00234757       0.00113838       0.00021427      -0.00004682       0.00006476       0.00081319      -3.71894509
H        6.08792676       5.73562013       5.41785791      -0.05909643      -0.11003400      -0.34785961       0.00045377       0.00027031       0.00111014       0.00073018       0.00009484      -0.00015235      -3.22907775
H        3.56399443       5.19008312       4.60511700       1.32405182      -0.89949821       0.06251662       0.00138810       0.00079502       0.00109466       0.00042285      -0.00072621      -0.00048985      -3.65408714
H        5.85535665       3.91399407       5.72777468      -0.04543093      -0.13580802       0.11294281       0.00031146       0.00033083       0.00008779      -0.00012946       0.00006688      -0.00014141      -1.75468262
H        3.97044429       4.14921732       4.81712757      -0.05149380      -0.58233281       0.63841391       0.00160851       0.00015900       0.00055717       0.00012265      -0.00021193      -0.00091247      -2.69813875
