20
Lattice="10.0 0.0 0.0 0.0 10.0 0.0 0.0 0.0 10.0" Properties=species:S:1:pos:R:3:forces:R:3:stresses:R:6:energies:R:1 energy=-69.40774805457639 stress="0.0019842137901012104 -0.0016869792272567214 -0.00010165065569518949 -0.0016869792272567214 0.0025821322211165855 -0.0009938658125997655 -0.00010165065569518949 -0.0009938658125997655 -0.0010331148638840846" free_energy=-69.40774805457639 pbc="F F F"
H        4.97698521       5.96853696       5.42385833       0.12477528       0.01667859      -0.03188725      -0.00071783       0.00047566      -0.00053531      -0.00091628      -0.00075522      -0.00014848      -4.73523772
H        4.62913575       4.79303052       4.07933162      -1.47172597       1.15769968      -0.55038059       0.00164262       0.00068843      -0.00027834       0.00025741      -0.00020980      -0.00043815      -3.19320289
H        4.46217644       5.20707635       6.18712425      -1.02877866       1.45738935       0.63848718       0.00017128      -0.00000105      -0.00025195      -0.00151669       0.00051796       0.00036618      -4.20255639
H        3.43994215       5.61814653       6.34815213      -0.09915633      -0.21354469      -0.05740200       0.00091824       0.00033406       0.00027913       0.00056205       0.00032278       0.00022809      -2.70253427
H        5.39393429       5.79274450       6.41561607       0.11074656       0.04442621       0.16660926       0.00132452       0.00014815       0.00024458       0.00035546      -0.00053109      -0.00005983      -2.76135631
H        5.40989139       4.93427904       5.71621691       0.54402937       0.19937712       0.10878155      -0.00250064      -0.00072770      -0.00015315      -0.00078698       0.00023942      -0.00037415      -4.71690985
H        4.36975025       6.29158661       6.30182675       0.00996235       0.01613899       0.02103485       0.00129660      -0.00004805       0.00036005       0.00030345      -0.00005883       0.00008960      -2.76918648
H        5.42935493       5.35229547       4.62802973       0.36406867      -1.42942179       0.92179956      -0.00109535       0.00055794       0.00098051      -0.00034263       0.00034275       0.00029924      -4.72830344
H        4.45705071       5.86204558       4.42430105      -0.00646519       0.16023336      -0.00045598       0.00080427       0.00036098       0.00067971       0.00038398       0.00006138       0.00008997      -3.37712213
H        3.88393408       5.88397576       5.38765817       0.82560027      -1.35104323      -0.49381742      -0.00127602       0.00097561      -0.00037138      -0.00053645       0.00082829      -0.00045045      -4.61634643
H        6.48529601       5.64080380       4.44502381      -0.14075618      -0.06931148      -0.06887345       0.00044586       0.00016760       0.00011480      -0.00009398      -0.00021529       0.00010892      -1.71957726
H        2.84454634       5.52746928       5.36877799       0.12063569      -0.01368027       0.06039520       0.00043074      -0.00018030       0.00092352       0.00034352      -0.00007023      -0.00015995      -2.21374819
H        4.51765687       5.03340139       5.12986714      -0.53753441      -0.28378697      -0.19533286      -0.00516351      -0.00503364      -0.00617989      -0.00057000      -0.00008229      -0.00080524      -5.61788519
H        6.23820502       4.71770979       5.02753719       0.08756966       0.08571445       0.01920308       0.00047988       0.00056900      -0.00014352       0.00049833       0.00022317       0.00013315      -3.19797716
H        3.59910897       4.76604748       5.62849908      -0.08730713       0.23798967      -0.00065667      -0.00060389       0.00132256       0.00059083       0.00035506       0.00008692       0.00033434      -3.72158321
H        5.21905682       4.24269004       4.86130773      -0.61063030       1.12958581      -1.12564768       0.00166539       0.00110437       0.00007494      -0.00009800       0.00002014       0.00079330      -3.75375056
H        6.06576114       5.76500986       5.46973535      -0.05054099      -0.00295740       0.09398711       0.00047118       0.00029200       0.00079159       0.00068223       0.00004883      -0.00030141      -3.23778829
H        3.57964569       5.17104134       4.57426364       1.77822961      -0.95854131       0.28677323       0.00166188       0.00092002       0.00115198       0.00034369      -0.00070826      -0.00048453      -3.65160857
H        5.85362225       3.92203519       5.71898350       0.01284731       0.02920563      -0.01453892       0.00035630       0.00039855       0.00011901      -0.00017241       0.00003836      -0.00011100      -1.75581036
H        4.03670728       4.14005227       4.77140052       0.05443041      -0.21215172       0.22192180       0.00167269       0.00025796       0.00056978      -0.00004564      -0.00020064      -0.00079660      -2.73526335
