20
Lattice="10.0 0.0 0.0 0.0 10.0 0.0 0.0 0.0 10.0" Properties=species:S:1:pos:R:3:forces:R:3:stresses:R:6:energies:R:1 energy=-69.43392862600736 stress="0.0018843541167043562 -0.0014462002792675138 0.00016932445507095276 -0.0014462002792675138 0.0023694528902699296 8.73476861805011e-06 0.00016932445507095276 8.73476861805011e-06 -0.0011518893361262552" free_energy=-69.43392862600736 pbc="F F F"
H        4.96673914       5.96915064       5.44169153      -0.11646751      -0.15509792      -0.04280456      -0.00066103       0.00057520      -0.00045579      -0.00083450      -0.00069147      -0.00003135      -4.74394739
H        4.63321460       4.81188268       4.07747323      -0.98077410       1.64636677      -1.37775235       0.00153681       0.00055191      -0.00064110       0.00041572      -0.00005715      -0.00045840      -3.20791953
H        4.45552706       5.18914040       6.19020981       0.02226254       1.05034864       0.01745154       0.00049097       0.00001136      -0.00006060      -0.00142990       0.00044925       0.00042666      -4.20914598
H        3.42700652       5.57719086       6.34553900      -0.31114288      -0.02758205       0.24710817       0.00079177       0.00027981       0.00018102       0.00054578       0.00036203       0.00028651      -2.69957956
H        5.38327980       5.78493484       6.43336416      -0.16742704       0.01815955      -0.12423882       0.00153313       0.00018254       0.00036903       0.00032872      -0.00053048       0.00000266      -2.74826981
H        5.41806289       4.94509283       5.71305699      -0.10186297      -0.15984192       0.19243571      -0.00215584      -0.00078901      -0.00000781      -0.00059078       0.00007751      -0.00049501      -4.73249064
H        4.34734591       6.26855339       6.32142627       0.05768787       0.02432502      -0.11844107       0.00141301      -0.00010800       0.00044569       0.00031082      -0.00004533       0.00011298      -2.76228287
H        5.42827037       5.37621571       4.63506362       0.11216873      -1.26639835       0.57888151      -0.00094629       0.00053111       0.00091788      -0.00028456       0.00037505       0.00036603      -4.73450738
H        4.44631521       5.87414958       4.43873486       0.58328204      -0.14555571      -0.01082779       0.00072118       0.00048672       0.00065980       0.00027116       0.00022093      -0.00000641      -3.38273954
H        3.87672064       5.86432920       5.39575699       0.53787328      -1.06281466      -0.17245037      -0.00143063       0.00088305      -0.00058682      -0.00045550       0.00099169      -0.00044452      -4.62042626
H        6.48219963       5.68175010       4.45683918      -0.22641333      -0.12208427      -0.13074238       0.00049726       0.00017924       0.00007155      -0.00010707      -0.00020556       0.00014048      -1.71972929
H        2.84187614       5.49621501       5.36140778       0.12786816      -0.02500120      -0.07026213       0.00044322      -0.00019617       0.00093095       0.00033370      -0.00012976      -0.00015630      -2.21572861
H        4.52218911       5.02789400       5.12950779       0.14313024       0.20405075       0.37805881      -0.00532008      -0.00468736      -0.00621248      -0.00066746      -0.00006579      -0.00063446      -5.62265136
H        6.24326447       4.74111534       5.01409969       0.46578635       0.44382734       0.39631519       0.00026901       0.00063769      -0.00007437       0.00058116       0.00010545       0.00005189      -3.19171642
H        3.60434503       4.74117852       5.61506981      -0.10029170      -0.03242639       0.08882308      -0.00066559       0.00126083       0.00056063       0.00042246       0.00011983       0.00030186      -3.71767813
H        5.23929894       4.25940138       4.84186084      -0.85756258       0.96954201      -0.72740463       0.00145108       0.00110705       0.00018515       0.00002093       0.00005434       0.00074820      -3.74912506
H        6.06065208       5.78849248       5.48120671      -0.11657473      -0.17879397       0.12929294       0.00050771       0.00037593       0.00088860       0.00075866       0.00000718      -0.00036273      -3.21535666
H        3.59107482       5.15893820       4.56856649       0.99537713      -0.56127979       0.04422580       0.00139643       0.00064906       0.00104707       0.00041996      -0.00080522      -0.00040930      -3.67450687
H        5.87042561       3.93711757       5.70353458      -0.04015108       0.06883688      -0.11997247       0.00038900       0.00040432       0.00015788      -0.00019147       0.00006265      -0.00011700      -1.75791292
H        4.05395363       4.13723501       4.74310161      -0.02676842      -0.68858071       0.82230381       0.00162324       0.00003417       0.00047184       0.00016090      -0.00012583      -0.00076800      -2.72821436
