20
Lattice="10.0 0.0 0.0 0.0 10.0 0.0 0.0 0.0 10.0" Properties=species:S:1:pos:R:3:forces:R:3:stresses:R:6:energies:R:1 energy=-17.407827666387366 stress="0.009108349443904777 -0.0027932557182482874 0.0019321526253029304 -0.0027932557182482874 0.002298319824055258 -0.0004495711352042166 0.0019321526253029304 -0.0004495711352042166 0.0021970876793488037" free_energy=-17.407827666387366 pbc="F F F"
H        5.77183503       6.18980874       6.99091099      -1.39120032       0.40483775       1.32157127       0.00115623      -0.00013682      -0.00050385      -0.00053793       0.00041570       0.00055626      -1.26827885
H        3.91598704       3.42444919       4.21874028      -1.55151968      -0.81398101       1.77933812       0.00102172       0.00100570       0.00093952      -0.00082628      -0.00012675      -0.00015292      -0.98416542
H        3.86790707       5.91992640       6.93161599      -0.38289036       2.27482939      -0.92961133       0.00157519       0.00100353       0.00008149       0.00006462       0.00006729      -0.00112313      -1.96630335
H        3.10366696       5.13808043       7.10615718       0.58120513      -2.56255015       0.77497428      -0.00003759      -0.00102751      -0.00011362       0.00041125      -0.00019840       0.00018899      -1.07636421
H        6.65407028       5.48849983       7.13761616      -1.30880528       0.33130492      -0.79752972       0.00065884       0.00019182       0.00030841       0.00000252       0.00032682      -0.00014842      -1.02515390
H        5.91353989       5.37966013       6.27835882      -0.94378143      -2.02284160      -0.65081221       0.00128250      -0.00075586      -0.00023169      -0.00070631       0.00003764       0.00021577      -1.46306794
H        3.42607369       7.01984447       6.84348038      -0.02002743      -3.37276994       0.05938414       0.00055712       0.00186328       0.00001815      -0.00005228       0.00006576      -0.00006317      -0.99492451
H        5.70284260       5.63348107       3.18361786      -0.72611520      -1.79388690       1.12601199       0.00030410       0.00100874       0.00035040      -0.00056427      -0.00026641       0.00051467      -0.92625636
H        2.70395050       4.89256987       4.06298241       0.26231946      -0.82725579       0.10598456       0.00014323       0.00057134       0.00003477      -0.00008100       0.00001513      -0.00015999      -0.54398368
H        2.73251512       6.09957856       6.74683194       1.72036404       2.93451608      -0.42257548       0.00113736      -0.00044797      -0.00009521       0.00041688       0.00003679       0.00060374      -1.45712742
H        7.30196294       6.90706222       2.81045122       5.08370340       6.32808310      -3.39315538      -0.00149375      -0.00233349      -0.00061080       0.00131536       0.00103561      -0.00187803      -0.40196309
H        2.89623995       7.19499155       3.09525052      -0.00295315      -0.03536018       0.01486225       0.00000028       0.00004071       0.00000719      -0.00001711      -0.00000143       0.00000340      -0.00532343
H        4.78778700       5.31469894       6.60345826       1.78036189       1.96158594       0.52832389       0.00273756       0.00080602       0.00030319       0.00032529      -0.00024709       0.00032131      -1.33519214
H        6.69417138       6.15982365       3.22147777      -5.27977496      -6.40921602       3.67291976      -0.00151170      -0.00228742      -0.00060639       0.00136285       0.00107171      -0.00186962      -0.90166464
H        3.59713289       2.80296501       6.21960469       0.07975460       0.03420796      -0.53110644       0.00002546       0.00008626       0.00037748      -0.00000316      -0.00004414      -0.00001012      -0.53010285
H        5.25184083       4.64795449       3.77052551       0.67583031       1.78383792      -1.04437459       0.00046603       0.00113229       0.00040699      -0.00062046      -0.00033353       0.00062814      -0.47641148
H        7.02782559       7.23111001       4.94061764      -0.05317057      -0.15415537      -0.18943593       0.00003029       0.00009330       0.00027844       0.00005623      -0.00000976       0.00004261      -0.05117173
H        2.81096077       3.77137199       4.20845224       1.59043276      -0.03301784       0.15711487       0.00092140       0.00059926       0.00014170      -0.00018451       0.00011925      -0.00039648      -1.04281725
H        6.90748034       2.81671208       6.40538982      -0.00890856       0.03641852       0.00395563       0.00000380       0.00004764       0.00000184       0.00000533      -0.00000016      -0.00001151      -0.00342129
H        3.82397175       2.59738909       5.13197121      -0.10482467       1.93541322      -1.58583969       0.00013029       0.00083748       0.00110906      -0.00081660      -0.00003188      -0.00005475      -0.95413413
