20
Lattice="10.0 0.0 0.0 0.0 10.0 0.0 0.0 0.0 10.0" Properties=species:S:1:pos:R:3:forces:R:3:stresses:R:6:energies:R:1 energy=-68.48943755073998 stress="0.005431548542909505 -0.00278247819880669 0.002032921290268773 -0.00278247819880669 0.004723422355809135 -0.0024401709590080646 0.002032921290268773 -0.0024401709590080646 0.0032211605179390014" free_energy=-68.48943755073998 pbc="F F F"
H        5.02330556       5.92321645       5.44134239       0.70867105       0.14248687      -0.01929654      -0.00170427      -0.00001576      -0.00070604      -0.00085408      -0.00036943       0.00067546      -4.76183000
H        4.62773005       4.74917757       4.09996709      -2.35183482       0.54930151      -0.06837188       0.00153160       0.00144335      -0.00015656      -0.00017553      -0.00037574      -0.00034695      -3.19273446
H        4.41798609       5.22855709       6.18640932       1.37952244       1.30557023       0.31690936       0.00115679       0.00004141      -0.00009663      -0.00140175       0.00023227       0.00040226      -4.18741404
H        3.46654808       5.78118261       6.34895738      -0.26921098       0.89523199      -0.45165535       0.00091106      -0.00016748       0.00073964       0.00001891       0.00039730       0.00014161      -2.44929088
H        5.41957285       5.73168379       6.45244692       0.07805137       0.29296016      -0.47395036       0.00149987      -0.00028595       0.00064682      -0.00003030      -0.00042320       0.00030206      -2.71234581
H        5.38285608       4.90591436       5.74116703      -2.60457036      -2.22779339      -0.85900612      -0.00160170      -0.00172690      -0.00002140      -0.00087713       0.00047992      -0.00055411      -4.75218935
H        4.47254957       6.31293097       6.31079768      -1.50072270       1.08846456      -0.03083991       0.00062829      -0.00041331       0.00034597       0.00029686       0.00034758       0.00025044      -2.76817097
H        5.42763762       5.29436639       4.63941467       1.74803704      -3.41020978       2.32605849      -0.00118625       0.00053417       0.00094915      -0.00078277       0.00004388       0.00054396      -4.71132032
H        4.51077231       5.86150554       4.43620705      -1.20390006      -0.89221144      -1.44221241       0.00049887       0.00088958       0.00024190       0.00043724       0.00022673       0.00057429      -3.36713689
H        3.94300116       5.96993389       5.37336912      -1.42725594      -2.60575726      -0.08159850      -0.00122712       0.00144261       0.00057702       0.00039745       0.00123197      -0.00040953      -4.54084820
H        6.50434178       5.47279209       4.45417289       0.25241380       0.63758181      -0.52311263       0.00033177      -0.00014139       0.00000555       0.00013836      -0.00014595      -0.00001917      -1.72050609
H        2.87948607       5.78143981       5.10113030       2.16423148      -1.13110715       1.77239920       0.00125913       0.00049772       0.00130814      -0.00011157       0.00049927      -0.00052967      -1.96986211
H        4.48256942       5.02111875       5.13587224       1.84355076       2.39335612       1.27514701      -0.00293331      -0.00365440      -0.00539351      -0.00077366       0.00000201      -0.00147224      -5.67309418
H        6.19795588       4.60921500       5.07341400       0.35294199       0.01764406      -0.08689032       0.00012955       0.00023936      -0.00033044       0.00040566       0.00051744      -0.00036042      -3.20686900
H        3.50040675       4.96733633       5.60028177      -0.56300865      -1.51780308      -2.37766770       0.00023862       0.00094175       0.00079409       0.00018396       0.00002596      -0.00037068      -3.66575678
H        5.17716866       4.18786382       4.90903490      -2.25385386       2.33541390      -0.99430374       0.00154757       0.00169077       0.00025723      -0.00009862      -0.00009369       0.00022834      -3.74829554
H        6.09661560       5.67272516       5.47310995       0.52791546       0.61655541       0.44010678       0.00012357       0.00005587       0.00103115       0.00067375      -0.00000317      -0.00040952      -3.19834403
H        3.60002019       5.16998950       4.48991330       3.61082506       0.13135383       2.26554825       0.00188847       0.00200985       0.00163838       0.00065932       0.00003127      -0.00006830      -3.54314545
H        5.77052348       3.86712562       5.79868697      -0.18555945       0.42546699      -0.12845106       0.00038907       0.00058971       0.00018511      -0.00019526       0.00007018      -0.00017145      -1.75749857
H        3.99071440       4.12190300       4.84181600      -0.30624362       0.95349467      -0.85881256       0.00194995       0.00075248       0.00120559      -0.00035101      -0.00066168      -0.00118885      -2.56278485
