20
Lattice="10.0 0.0 0.0 0.0 10.0 0.0 0.0 0.0 10.0" Properties=species:S:1:pos:R:3:forces:R:3:stresses:R:6:energies:R:1 energy=-13.919126988562844 stress="-0.03207216365627937 -0.037140459156695706 -0.030320883378260926 -0.037140459156695706 -0.050896618508796135 -0.05103362566787023 -0.030320883378260926 -0.05103362566787023 -0.040265897951149425" free_energy=-13.919126988562844 pbc="F F F"
H        5.16166823       5.90906353       6.82243441      20.78297661       1.50976942      -0.46849195      -0.00854755      -0.00018500      -0.00072218      -0.00049343       0.00103680      -0.00052371      -1.71038390
H        4.00673625       3.54635015       4.18888859      -2.16949085       0.83345638       0.94383602       0.00153235       0.00095114       0.00051311      -0.00035866      -0.00024886      -0.00027993      -1.17596726
H        4.15945046       5.91037864       6.95723407     -17.03227541      -3.86473631       2.26320796      -0.00969418      -0.00045500       0.00047920       0.00018967       0.00051543       0.00056633      -2.11214060
H        3.32976103       5.25274244       7.42830125       1.21842893       2.37872760      -1.88888892       0.00077628       0.00111395       0.00065251      -0.00069262      -0.00035377       0.00034640      -1.07968044
H        6.28285485       5.79534843       7.09389149      -2.22282531      -0.53376974      -1.16012790       0.00121032       0.00025248       0.00036155       0.00024641       0.00046483       0.00010136      -1.02050987
H        5.76617559       5.10003772       6.34356478      -1.72942541       1.00237668       0.10695300       0.00154223       0.00030916       0.00040905       0.00016463       0.00043589      -0.00014675      -1.48198499
H        3.87033267       6.96837936       6.98452866      -0.56941493       0.37760332      -0.20371286       0.00051247      -0.00013281       0.00008153       0.00008559      -0.00001303       0.00023838      -1.13950531
H        5.59889872       5.58934194       3.27299270       1.26350562       0.72567036       0.83216767       0.00073249       0.00050044       0.00023550       0.00013274       0.00025245       0.00055916      -1.03444461
H        3.12214843       4.84385743       4.05783090       0.91317634       0.34753190      -0.15976571       0.00034114       0.00001546       0.00004601       0.00005345       0.00008247      -0.00047351      -0.65173007
H        3.11450249       6.15515721       6.72920108      -0.49467368      -0.38959159       0.62212068      -0.00031328       0.00080176       0.00036251      -0.00024927      -0.00011186       0.00017307      -1.53124020
H        7.17480753       6.86736318       3.14668214      -0.06989288       0.09942173       0.55538571       0.00004421      -0.00000967       0.00035721       0.00003762      -0.00004617       0.00000680      -1.01580084
H        2.89193255       7.13129453       3.12211082       0.00380214      -0.03777829       0.01545393       0.00000044       0.00004321       0.00000723      -0.00001767       0.00000178      -0.00000435      -0.00577613
H        4.62297936       5.34142745       6.05895603       0.03476148      -0.63081728       0.53259298       0.00156592       0.00020406       0.00039809       0.00000854      -0.00053980      -0.00081858      -1.56788290
H        6.48398304       6.19747680       3.71089157     -62.68509588     -93.35126901     -81.88566584      -0.01174138      -0.02752812      -0.02171959      -0.02439837      -0.01602609      -0.01808769       2.27115634
H        3.55572045       3.04091985       6.09305726      -0.42154477       0.49992663       1.24929781      -0.00002257       0.00007348      -0.00050609      -0.00025915       0.00022796       0.00004683      -0.54933610
H        5.27244911       4.68444072       3.86249370      -0.25151597       0.13758129       0.01776306       0.00049694       0.00047735       0.00016940      -0.00012686      -0.00012704       0.00037785      -0.63707579
H        6.88465352       6.80134497       4.24548565      61.19793866      92.04248129      80.72336088      -0.01213226      -0.02772597      -0.02133313      -0.02460440      -0.01639820      -0.01836406       2.75955783
H        2.86449323       3.80267121       4.32544577       2.25829754      -2.10813732       0.61522017       0.00136651      -0.00019080       0.00026034      -0.00008410       0.00016180      -0.00065855      -1.11160815
H        6.89240087       2.87297603       6.41035321      -0.01776412       0.03512778      -0.00105346       0.00001000       0.00003912       0.00000004      -0.00000117       0.00000059      -0.00001978      -0.00548677
H        3.83581321       2.81940612       5.05316684      -0.00896813       0.92642515      -2.70965321       0.00024776       0.00054917      -0.00031819      -0.00066658       0.00036392      -0.00017973      -1.11928721
