20
Lattice="10.0 0.0 0.0 0.0 10.0 0.0 0.0 0.0 10.0" Properties=species:S:1:pos:R:3:forces:R:3:stresses:R:6:energies:R:1 energy=-51.208405313083404 stress="0.007062800397672079 0.007128255989190512 -0.0025228951167486253 0.007128255989190512 0.003694948727805249 -0.004017026191087328 -0.0025228951167486253 -0.004017026191087328 0.006356345449561262" free_energy=-51.208405313083404 pbc="F F F"
H        4.86089266       5.97661538       5.69819878       1.39284282       0.90900043       0.81087229       0.00013119       0.00049174      -0.00038531      -0.00021718      -0.00099489      -0.00001325      -3.94327095
H        4.40035509       4.12926258       3.93500902      10.28760121      -4.74603653      -2.03963178      -0.00335244      -0.00147666      -0.00004739      -0.00025723       0.00165462       0.00163616      -1.98269065
H        4.48621831       5.23581198       6.49450637      -0.03106469      -2.01735772      -2.71212372       0.00121683      -0.00110959       0.00076946      -0.00100923      -0.00044832      -0.00055477      -3.55346560
H        3.46734389       5.58156343       6.83147275       2.61629342       1.01796983      -1.88535075       0.00136582       0.00052995       0.00108650       0.00002709      -0.00059308       0.00047771      -1.66025627
H        5.39199866       5.84655757       6.63437494       4.23796774      -1.09960966       0.14397236      -0.00077996       0.00005164       0.00034084       0.00051176      -0.00095472       0.00023880      -2.35544797
H        5.47481369       5.02017388       5.85319327       3.47927080       3.32501058      -1.61758027       0.00066199       0.00255870       0.00287545       0.00027608      -0.00197020       0.00003707      -3.51296544
H        4.39065619       6.29392256       6.71797590      -3.35497951       0.56842492      -2.98368163       0.00062028      -0.00066970       0.00196682       0.00058635       0.00007220       0.00101469      -2.45572902
H        5.31346754       5.51039772       4.82519842       0.95109584      -5.73184658       1.68992762       0.00306346       0.00224910       0.00089492      -0.00044096       0.00103500       0.00095490      -3.95776581
H        4.33336070       5.11937045       4.37223759       0.85397406       0.59132830       1.91543243       0.00202874       0.00060623      -0.00004857      -0.00068176       0.00055626       0.00028786      -3.55725533
H        3.78629105       5.82177595       5.76519309       1.97513796      -0.91661337       3.95631684       0.00034782       0.00081501       0.00195411       0.00009682       0.00033946      -0.00111787      -3.14722545
H        6.17636795       6.00440717       4.33569588       0.16800156      -0.51829049      -2.97468390       0.00014651       0.00031436      -0.00145479      -0.00024920      -0.00010794      -0.00000823      -1.60148815
H        2.98712002       6.74425945       3.30680948       0.05499445      -0.11898585       0.08898945       0.00002807       0.00010915       0.00006811      -0.00007163       0.00003487      -0.00004555      -0.02342498
H        4.49437848       4.96888213       5.43543659      -3.07669945       4.66941961       1.20557861      -0.00221706      -0.00157191      -0.00269227      -0.00097727      -0.00197329      -0.00074517      -4.62711891
H        6.44996096       5.08398779       4.93574891      -4.95870926       0.02180372       0.76104236       0.00301047       0.00035056       0.00083440      -0.00032154      -0.00058496      -0.00014210      -1.93607520
H        3.44705211       5.05836734       5.05869922      -1.65250082       1.77925151      -1.02289143       0.00016549      -0.00170035       0.00046586      -0.00026366      -0.00003238       0.00072697      -2.77199384
H        5.12243159       4.26692500       4.87209158      -0.45410977       5.13243021      -1.52731844       0.00197279       0.00301681       0.00194219       0.00022666       0.00159264       0.00045697      -2.86371284
H        6.19718873       6.05194913       5.41690098      -5.79858958      -2.27704813       4.79624851       0.00298652       0.00095663      -0.00065109      -0.00041057      -0.00049602       0.00142474      -2.22135417
H        3.42427893       4.48322107       4.08536589      -7.34145937       4.43037902       1.22756623      -0.00331754      -0.00018049      -0.00000871       0.00031513       0.00070278       0.00190675      -1.98736471
H        6.67796457       3.28693389       6.37908110      -0.12747717       0.19618211      -0.10750794       0.00008911       0.00017487       0.00006683      -0.00008255       0.00005117      -0.00010152      -0.03630081
H        4.00962045       4.14559326       4.95432118       0.77840976      -5.21541190       0.27482317      -0.00110529      -0.00182109      -0.00162100      -0.00107412      -0.00040610       0.00069411      -3.01349922
