20
Lattice="10.0 0.0 0.0 0.0 10.0 0.0 0.0 0.0 10.0" Properties=species:S:1:pos:R:3:forces:R:3:stresses:R:6:energies:R:1 energy=-59.26736042519614 stress="-0.010754760953020562 0.007661334889783462 -0.011078429834170112 0.007661334889783462 -0.0017729740383763035 0.011212710369405132 -0.011078429834170112 0.011212710369405132 0.0026779273087867124" free_energy=-59.26736042519614 pbc="F F F"
H        4.92388367       6.05096810       5.49677532      -0.53877669       1.50006411       3.28968967       0.00185668      -0.00006024       0.00147450      -0.00068724      -0.00096537      -0.00076190      -4.01316859
H        4.60925024       4.33362555       4.11561955       7.83476609       2.65677575      -2.31887382      -0.00177344       0.00101760      -0.00077080       0.00140491       0.00177028       0.00042480      -2.52045843
H        4.58946567       5.37670955       6.50200192       2.56517420      -1.06437262      -2.86311508       0.00072475      -0.00040163       0.00133754      -0.00068007      -0.00067696       0.00011048      -3.58367943
H        3.58716910       5.64656351       6.90236279       1.75807797       1.58877592      -1.51029807       0.00088696       0.00073097       0.00088136      -0.00012711      -0.00051107       0.00073796      -1.58389014
H        5.51626857       6.00086959       6.41194287       0.00883051       1.24152105       0.15860735       0.00148200      -0.00018802       0.00067607       0.00024193      -0.00107798      -0.00026612      -2.64736546
H        5.47788470       5.06905430       5.83815855       0.88663126      -1.96049448       1.12432377       0.00071755       0.00078644      -0.00045699      -0.00017197      -0.00108331      -0.00144309      -4.61331826
H        4.45595061       6.45918430       6.59612985       1.38236877      -1.11868985      -1.41527876       0.00176668       0.00016890       0.00134699       0.00033016      -0.00121290      -0.00002212      -2.37663633
H        5.29421905       5.31700124       4.78920593      -6.46823367       2.32288545      -6.75308415      -0.00143651      -0.00334390      -0.00207244       0.00105617       0.00164225       0.00004699      -4.39055929
H        4.20721587       5.34334587       4.37810545      18.01471753     -11.16853862      10.90285039      -0.00393244      -0.00160252       0.00033156       0.00175233      -0.00148454       0.00363475      -3.38745935
H        3.85207602       5.92154388       5.84189840      -0.15657683      -2.11103989      -2.54479984       0.00109007       0.00059865       0.00134046       0.00048215       0.00001877       0.00011572      -3.29678245
H        6.19376936       5.51639840       4.22918102       2.01492321       1.16285817      -0.19663216      -0.00067614       0.00012511       0.00064708       0.00045179       0.00038928      -0.00009595      -1.69031752
H        3.46306543       5.90584475       3.98426678     -13.18608337       7.35044770      -5.08553019      -0.00474498      -0.00106778      -0.00008818       0.00124739      -0.00243183       0.00361730      -0.77120284
H        4.45334907       5.08137715       5.45324639      -2.05257016      -3.11338905      -1.34493445      -0.00255384      -0.00215662      -0.00000090      -0.00012547      -0.00009124      -0.00052736      -4.96063546
H        6.18767340       4.70828064       4.99292774      -0.38538402       1.45737582       2.94940927       0.00032481       0.00114454       0.00076481       0.00087666      -0.00063574      -0.00017285      -3.10421628
H        3.41962356       5.08923465       5.10251249      -1.62042327       2.43207005      -1.12621811      -0.00049480       0.00102390       0.00231377       0.00085313       0.00029638       0.00051866      -2.91963529
H        5.15611266       4.31127031       5.09759198      -9.79601079      -2.77323934      -6.42888320      -0.00173313      -0.00305064      -0.00236107       0.00169538      -0.00195067       0.00069071      -3.65483423
H        6.08053838       5.85217545       5.33124206      -1.87513434      -1.09726764       1.20845312       0.00156667       0.00139427       0.00184168       0.00063351      -0.00126763      -0.00060524      -3.00396994
H        3.54202870       4.50487830       4.07259043      -4.74519429       3.94956732      -0.48594936      -0.00176795       0.00118586       0.00017622       0.00100062      -0.00047881       0.00037195      -2.25676329
H        5.85884227       3.96632973       5.78398821       5.77057616      -0.27474740       5.97834345      -0.00175100       0.00130711      -0.00183161       0.00081375      -0.00226616       0.00055784      -1.56897692
H        4.02337529       4.17532247       4.98776318       0.58832174      -0.98056244       6.46192019      -0.00030670       0.00061504      -0.00287213       0.00016471       0.00093881       0.00072881      -2.92349095
