20
Lattice="10.0 0.0 0.0 0.0 10.0 0.0 0.0 0.0 10.0" Properties=species:S:1:pos:R:3:forces:R:3:stresses:R:6:energies:R:1 energy=-69.41698966353425 stress="0.002107180126223245 -0.0017349983659821035 -0.00036801642218709505 -0.0017349983659821035 0.002833136422864409 -0.0009304826482321877 -0.00036801642218709505 -0.0009304826482321877 -0.0011280333697527088" free_energy=-69.41698966353425 pbc="F F F"
H        4.97302842       5.97030673       5.42871066      -0.10974658      -0.01903841       0.17913812      -0.00064875       0.00052556      -0.00056247      -0.00099262      -0.00069603      -0.00010799      -4.72320615
H        4.63612537       4.80168346       4.08168078      -1.65629006       1.13745875      -1.05243173       0.00152619       0.00051817      -0.00045853       0.00028825      -0.00026736      -0.00042600      -3.20402542
H        4.45699347       5.19671676       6.19184880      -0.49660624       1.52338724       0.31323152       0.00038574       0.00015589      -0.00014464      -0.00148732       0.00044688       0.00035706      -4.19057969
H        3.43324935       5.60410198       6.34411330      -0.24041917      -0.15683527       0.02239717       0.00084664       0.00028264       0.00025942       0.00054043       0.00033171       0.00022861      -2.70464337
H        5.38503354       5.79003883       6.42198502      -0.00833149      -0.02409315       0.10044104       0.00137348       0.00017344       0.00026396       0.00037056      -0.00050425      -0.00003623      -2.76217712
H        5.41306385       4.93403464       5.71860099       0.27311772       0.17408613       0.02957489      -0.00220038      -0.00053556       0.00004414      -0.00070324       0.00009402      -0.00050033      -4.71891400
H        4.35722089       6.28252217       6.30458118       0.13081954      -0.09862759       0.03563177       0.00127971       0.00002131       0.00034765       0.00031046      -0.00006453       0.00005882      -2.77324232
H        5.42900182       5.36308853       4.63254887       0.39241816      -1.29437202       0.83283771      -0.00118443       0.00044335       0.00091123      -0.00039594       0.00032857       0.00034715      -4.72419323
H        4.45206304       5.86496074       4.42850455       0.25313803       0.06643580       0.00901932       0.00075036       0.00038422       0.00063252       0.00028053       0.00015761       0.00007054      -3.38114608
H        3.87982784       5.87584284       5.38660985       0.64934486      -1.18874486      -0.19539952      -0.00131424       0.00089820      -0.00051195      -0.00057328       0.00091109      -0.00041767      -4.61061788
H        6.48133382       5.66809362       4.45462451      -0.17104520      -0.21783648      -0.03775803       0.00045472       0.00023990       0.00010671      -0.00013798      -0.00021385       0.00013103      -1.72053464
H        2.84222509       5.51460895       5.36224191       0.12932259      -0.00554375       0.00866039       0.00043731      -0.00019046       0.00093589       0.00034746      -0.00009449      -0.00015455      -2.21325617
H        4.52024411       5.03190498       5.13328409      -0.27324576      -0.33507027      -0.30122978      -0.00508003      -0.00489101      -0.00611046      -0.00063784      -0.00009870      -0.00078016      -5.62775744
H        6.24005519       4.72946145       5.02019191       0.35961851       0.36364752       0.23550186       0.00036631       0.00060339      -0.00007344       0.00053287       0.00009461       0.00012039      -3.19855178
H        3.59887040       4.75636750       5.62343004       0.06907866       0.10498245      -0.05734998      -0.00058026       0.00129374       0.00058164       0.00037224       0.00005655       0.00034234      -3.71959488
H        5.23007700       4.24978563       4.85190038      -0.80524189       1.11795099      -0.70284217       0.00153601       0.00114078       0.00006347       0.00003104      -0.00004617       0.00072509      -3.75738018
H        6.06240591       5.77214748       5.48075088      -0.07551448      -0.11994245       0.01361837       0.00047536       0.00033019       0.00079966       0.00072531       0.00007316      -0.00030553      -3.23358680
H        3.58487572       5.16201084       4.57111257       1.61646236      -0.80905958       0.23007816       0.00164449       0.00081198       0.00110612       0.00036470      -0.00072263      -0.00046828      -3.66132363
H        5.86723608       3.92471766       5.70671764      -0.06426489       0.12496959      -0.02923966       0.00037116       0.00044532       0.00011969      -0.00016894       0.00005360      -0.00014131      -1.75515277
H        4.04883069       4.13758295       4.76407303       0.02738532      -0.34375465       0.36612055       0.00166781       0.00018208       0.00056136       0.00000284      -0.00020782      -0.00077796      -2.73710610
