20
Lattice="10.0 0.0 0.0 0.0 10.0 0.0 0.0 0.0 10.0" Properties=species:S:1:pos:R:3:forces:R:3:stresses:R:6:energies:R:1 energy=-17.825729980906118 stress="0.010851993799003147 0.003690518329512521 -0.0003549448921917507 0.003690518329512521 0.0078027249702418006 -0.002214437742709246 -0.0003549448921917507 -0.002214437742709246 0.00377707475530468" free_energy=-17.825729980906118 pbc="F F F"
H        5.76991108       6.21125695       7.03100211      -1.46230422      -0.73440570      -0.38480226       0.00083902       0.00034005       0.00008019       0.00014432       0.00028814       0.00054446      -1.25499641
H        3.90784726       3.41081699       4.21462190      -1.36717459      -0.79749175       1.81565535       0.00091354       0.00097119       0.00096396      -0.00081425      -0.00012418      -0.00014425      -0.99537205
H        3.85910553       5.91002301       6.90714832      -0.17216444       0.96498856      -0.25946092       0.00080089       0.00065459       0.00003857       0.00001165      -0.00002703      -0.00033046      -2.03053912
H        3.09518097       5.11373496       7.11137109       1.11130647      -1.67127049       0.49752347       0.00024062      -0.00068616      -0.00006833       0.00030000      -0.00023498       0.00040938      -1.07909095
H        6.63638552       5.50672755       7.13605806      -0.62033258      -0.12456570      -0.58221798       0.00035747       0.00002845       0.00024778       0.00003285       0.00024361       0.00005263      -1.02702716
H        5.88653367       5.38139347       6.29197171      -0.79457623      -0.16593163       0.56585501       0.00096424      -0.00002955       0.00022138      -0.00005862       0.00001347       0.00004069      -1.50483797
H        3.49228040       6.99575547       6.85120982      -0.67378993      -2.77569173      -0.05965675       0.00060524       0.00149476       0.00001460       0.00001516       0.00004124       0.00026358      -1.02335699
H        5.67265116       5.61848043       3.18010805       0.41339426      -1.21536442       1.20429468       0.00084830       0.00110763       0.00035069      -0.00053101      -0.00021040       0.00076206      -0.92772238
H        2.70519647       4.88866080       4.06383427       0.21680972      -0.35085126       0.04327039       0.00014032       0.00030344       0.00002981      -0.00004609       0.00001135      -0.00013433      -0.54609825
H        2.75122214       6.09356813       6.76692368       1.02889094       3.14853986      -0.50276626       0.00066414      -0.00029101      -0.00008951       0.00039041      -0.00004516       0.00075287      -1.46895637
H        7.33934185       6.95466352       2.78441759      -0.59910715      -0.70586813       0.48433525       0.00022937       0.00031357       0.00019199      -0.00015246      -0.00014863       0.00025950      -0.52378080
H        2.89628272       7.19534205       3.09510483      -0.00289575      -0.03495585       0.01468030       0.00000028       0.00004032       0.00000711      -0.00001693      -0.00000140       0.00000334      -0.00524295
H        4.76584726       5.34106085       6.54507548       1.61822844       1.30542711       0.61047259       0.00201879       0.00060712       0.00026627       0.00028569      -0.00000791       0.00038852      -1.32803128
H        6.70211553       6.13106964       3.25171213      -0.70035509       0.08707360      -0.29427603       0.00081608       0.00052112       0.00020694      -0.00008032      -0.00007522       0.00057508      -1.02132103
H        3.59858350       2.80007318       6.21316530      -0.11856099       0.20919395       0.40867853       0.00000296       0.00007008      -0.00012788      -0.00009713       0.00006199       0.00000841      -0.53020311
H        5.23889449       4.64540778       3.76903281       0.63938700       1.74529789      -1.03740726       0.00045331       0.00110197       0.00040655      -0.00060903      -0.00032266       0.00060421      -0.49532134
H        7.02816090       7.23112148       4.93991166      -0.05132956      -0.15360174      -0.18651282       0.00002981       0.00009435       0.00027135       0.00005733      -0.00001015       0.00004217      -0.05008210
H        2.81533201       3.77778677       4.20932702       1.46560672      -0.48434045       0.21373217       0.00081764       0.00033018       0.00013899      -0.00014995       0.00011229      -0.00035309      -1.04938150
H        6.90722691       2.81662412       6.40514689      -0.00889498       0.03503635       0.00381719       0.00000390       0.00004599       0.00000173       0.00000518      -0.00000022      -0.00001151      -0.00314326
H        3.82366222       2.60641060       5.14036818       0.07786194       1.71878151      -2.55521465       0.00010607       0.00078464       0.00062488      -0.00090123       0.00008093      -0.00004273      -0.96122497
