20
Lattice="10.0 0.0 0.0 0.0 10.0 0.0 0.0 0.0 10.0" Properties=species:S:1:pos:R:3:forces:R:3:stresses:R:6:energies:R:1 energy=-67.7076103539895 stress="0.0034521295952570467 -0.0031478651464234425 1.415919227690653e-05 -0.0031478651464234425 0.004448836352452447 -0.0014770967804100883 1.415919227690653e-05 -0.0014770967804100883 0.0006114276130831402" free_energy=-67.7076103539895 pbc="F F F"
H        5.01605464       5.94458487       5.43571889       0.42953566      -0.10354834       0.58979339      -0.00172928       0.00066699       0.00023977      -0.00069449      -0.00010716       0.00064753      -4.69342130
H        4.66433450       4.70184587       4.12084042      -4.59413500       1.60712654      -0.38721848       0.00100238       0.00116236       0.00002575       0.00031432      -0.00108969      -0.00050866      -3.19199754
H        4.44191950       5.25856206       6.20294947      -1.40605098       0.84821710       0.22064857       0.00080086      -0.00007658      -0.00019667      -0.00120504       0.00094170       0.00102266      -4.15043117
H        3.46744106       5.73441687       6.40768653       0.52724062       0.82979484      -0.15613010       0.00079869       0.00032756       0.00049725       0.00027455       0.00009428       0.00052565      -2.25721973
H        5.43205756       5.76562658       6.43497558      -0.18675578       0.10160705      -0.02222037       0.00134501       0.00002369       0.00035043       0.00021412      -0.00036002       0.00004037      -2.76685388
H        5.36886968       4.90870958       5.74758422      -0.30149777      -0.12251339       0.13059734      -0.00201994      -0.00145267      -0.00067272      -0.00102802       0.00055322      -0.00029567      -4.77012308
H        4.46531643       6.34772087       6.34328895       0.03900952      -0.38898907      -0.13576614       0.00132965       0.00011480       0.00041815       0.00030443      -0.00050151       0.00004266      -2.71037404
H        5.40630403       5.28025867       4.67365687       0.75346467      -0.45755404       0.17938322      -0.00076152       0.00010103      -0.00005402      -0.00107810       0.00046532      -0.00033438      -4.71084585
H        4.40613939       5.82502428       4.43970423       1.35651834      -0.55746037       0.08314314       0.00273475       0.00085306       0.00084294       0.00100443       0.00031347      -0.00058494      -3.45316033
H        3.94608965       5.97237338       5.44540095      -0.26905903      -0.77478247      -0.41871946      -0.00339869       0.00035066      -0.00077471       0.00028009      -0.00027221      -0.00091176      -4.33959686
H        6.47112367       5.49061508       4.46084573       0.08345368      -0.08689619      -0.17707508       0.00033791       0.00017099       0.00009524      -0.00009024      -0.00019661       0.00008983      -1.72969800
H        3.06248660       5.91062304       4.82628796      -0.72544810      -0.46718827       0.86439007       0.00040948       0.00017925       0.00049153      -0.00121590      -0.00030275      -0.00029370      -1.86681600
H        4.46116551       5.02529927       5.15663222       0.31786659      -0.54492246      -0.05766799      -0.00241894      -0.00307575      -0.00448336       0.00027355       0.00027093      -0.00115125      -5.71148288
H        6.18321538       4.60000630       5.07496482       1.30950028       1.01812598       0.56229246      -0.00022705       0.00077278       0.00006046       0.00031231       0.00011375      -0.00023068      -3.19973882
H        3.44916976       4.99663885       5.55713447       0.55774990      -0.10691765      -0.72841990       0.00110245       0.00140141       0.00169223       0.00019790       0.00076197      -0.00064431      -3.44462465
H        5.16899276       4.18325319       4.94487111      -2.09350170       0.50388742      -0.48332580       0.00036606       0.00108786      -0.00091234       0.00008526      -0.00076740      -0.00001406      -3.77124304
H        6.09383459       5.67895685       5.49069079      -0.34905520      -0.47962428      -0.09344692       0.00051190       0.00062945       0.00076557       0.00073734       0.00016711      -0.00026603      -3.21976678
H        3.59796876       5.04467200       4.44422956       4.40438674      -2.05822232       0.57095679       0.00132170       0.00004128       0.00097533       0.00017810       0.00055794       0.00043215      -3.36524436
H        5.75952807       3.87785421       5.83539572       0.26734803       0.33587384      -0.16025468       0.00035802       0.00053148       0.00020033      -0.00025604      -0.00006451      -0.00001938      -1.75830715
H        4.02975005       4.08293592       4.86465245      -0.12057044       0.90398607      -0.38096007       0.00158871       0.00063917       0.00105028      -0.00008566      -0.00056366      -0.00069389      -2.59666489
