20
Lattice="10.0 0.0 0.0 0.0 10.0 0.0 0.0 0.0 10.0" Properties=species:S:1:pos:R:3:forces:R:3:stresses:R:6:energies:R:1 energy=-52.67236140525728 stress="0.003677611926315875 0.005404578421003486 -0.00368523506995151 0.005404578421003486 0.006483452297572081 -0.0009128939790324526 -0.00368523506995151 -0.0009128939790324526 0.003566017468507383" free_energy=-52.67236140525728 pbc="F F F"
H        4.89037427       6.00972432       5.70216887       7.51550406      -1.89567263      -3.30586277      -0.00001495       0.00084863       0.00113084      -0.00007485      -0.00076973      -0.00084077      -4.04589596
H        4.41426267       4.08219363       3.93989458       6.37418644      -2.29255927      -0.44077647      -0.00164601      -0.00067605       0.00045286       0.00008077       0.00133071       0.00113365      -2.08640400
H        4.50896445       5.21347346       6.47886259       4.55839246      -1.58979940      -2.86864215       0.00163948      -0.00068874       0.00116937      -0.00044423      -0.00070395       0.00082517      -3.56264374
H        3.52573091       5.58559089       6.84984493      -0.55866722      -0.64093573       0.14892003       0.00004116      -0.00013126       0.00025330       0.00024504      -0.00008620      -0.00015865      -1.67850931
H        5.44852842       5.85746131       6.64796771      -1.78474205      -1.08335219      -2.93267863       0.00208651       0.00088233       0.00170570       0.00048515      -0.00046935       0.00024959      -2.46363591
H        5.52367744       5.04290878       5.84405640      -0.43338850       4.33190851      -3.95442421       0.00215576       0.00307224       0.00389983       0.00011618      -0.00114440      -0.00000572      -3.72921162
H        4.36367801       6.27879503       6.63139291       2.63152919       3.68703420       2.71640689       0.00028329      -0.00153350      -0.00095159      -0.00041161      -0.00024571      -0.00067185      -2.57671064
H        5.30655381       5.43296222       4.69044286       0.47904260       0.24510465       6.48778448       0.00023272       0.00218345       0.00330604       0.00056353      -0.00015913       0.00052137      -3.86952351
H        4.31530639       5.08773308       4.36385308      -1.50343812      -0.26900314      -4.95436084      -0.00006520       0.00057974      -0.00317522      -0.00081552      -0.00085355      -0.00064166      -3.46407004
H        3.83710825       5.80055749       5.80536297      -3.83437092      -2.06491868      -2.99743363      -0.00156802      -0.00004038      -0.00058079       0.00003232      -0.00040736      -0.00086394      -3.24074861
H        6.20005509       6.03462588       4.36532453      -0.97191272       0.86992294       0.13083076       0.00047071      -0.00034381       0.00036745       0.00023007      -0.00040594       0.00034195      -1.63034352
H        2.99030863       6.73801818       3.31211463       0.06191782      -0.12066515       0.09398013       0.00003704       0.00010878       0.00007172      -0.00007551       0.00003995      -0.00005004      -0.02271917
H        4.53006980       5.02973299       5.38632964      -5.95386754       2.29037027       9.49052352      -0.00087724      -0.00244603      -0.00520030      -0.00082409      -0.00007171       0.00140970      -4.59387840
H        6.33286527       5.12032877       4.96282636      -2.35271306      -1.82181299       3.26454882       0.00150149       0.00002134       0.00074915       0.00059704      -0.00103466       0.00053647      -2.25554804
H        3.42265394       5.08484843       5.05046527       3.60387941      -0.16288199       2.25577951       0.00206630       0.00051121       0.00006034      -0.00026483       0.00030385      -0.00045096      -2.75722865
H        5.09510393       4.29231825       4.88529559       6.44475740       1.32414720      -4.64228333      -0.00061871       0.00109992       0.00134843      -0.00075243       0.00247998       0.00136409      -2.93448689
H        6.04700941       6.08499924       5.48354741      -5.77819247      -4.59170158       0.86407234       0.00278465       0.00197463       0.00222898       0.00005641      -0.00054366       0.00136847      -2.67617189
H        3.43311555       4.44965603       4.15915265      -7.08328903       1.69711443      -3.74162072      -0.00278818      -0.00094756      -0.00192095      -0.00001732      -0.00025936       0.00115830      -2.03190286
H        6.67009905       3.29899480       6.37187389      -0.13305317       0.20352397      -0.10538058       0.00009003       0.00018283       0.00006358      -0.00008168       0.00005299      -0.00010768      -0.03725860
H        4.03629628       4.10505497       4.97673405      -1.28157459       1.88417657       4.49061687      -0.00213323       0.00182570      -0.00141274       0.00044265      -0.00073801       0.00028708      -3.01547005
