20
Lattice="10.0 0.0 0.0 0.0 10.0 0.0 0.0 0.0 10.0" Properties=species:S:1:pos:R:3:forces:R:3:stresses:R:6:energies:R:1 energy=35.7299764054419 stress="-0.2548975508260925 0.06230260320545221 -0.14294738904297427 0.06230260320545221 -0.25841379751613835 0.16090913171652188 -0.14294738904297427 0.16090913171652188 -0.13553326850733266" free_energy=35.7299764054419 pbc="F F F"
H        5.96961598       6.81282711       7.11053678      -0.58930923      -1.29157702      -0.74844693       0.00038453       0.00078999       0.00030346       0.00038669       0.00021777       0.00029491      -0.25339273
H        3.86974526       3.25326541       4.09748701      -1.30503346      -0.78580247       2.04036070       0.00070785       0.00078124       0.00101793      -0.00072265      -0.00012591      -0.00023956      -0.91064252
H        3.70699305       5.91861958       6.86951404       0.96484274     -14.28685639      -0.54194484       0.00184267      -0.00465961       0.00039397       0.00040526      -0.00068971       0.00006444      -1.50154740
H        3.09218340       4.71360428       7.08935220       0.71171073       2.86702767      -0.72167000       0.00060790       0.00198003       0.00013657      -0.00036124      -0.00015515       0.00028349      -0.50371299
H        7.15030854       5.17852656       7.36509459      -0.24693854       0.14124976      -0.11200107       0.00019344       0.00014996       0.00004712      -0.00002153       0.00008635      -0.00010774      -0.05492981
H        5.40933044       5.67331873       6.40590574     227.88710183     102.82853274      40.79921755      -0.08801782      -0.01699928      -0.00240211      -0.00656753      -0.01544132      -0.03941973       6.40947333
H        3.67734653       6.95331135       6.82967573      -1.36995469      10.28052189      -0.52683385       0.00087965      -0.00530323       0.00001346       0.00028985      -0.00003228       0.00061487      -0.59229103
H        5.19579581       5.41730426       3.19123434    -242.47426810     389.73416791    -304.18730159      -0.04350282      -0.11276817      -0.06876980       0.08808468      -0.05487367       0.07037619      15.41562296
H        2.57654544       5.01865775       4.05853923       0.46572626      -2.07932012       0.19137695       0.00010977       0.00145946       0.00004232      -0.00015181       0.00001714      -0.00029361      -0.31799277
H        2.58118743       6.06860696       6.81271474       2.51927855      -0.28465678       0.26223098       0.00130991       0.00126534       0.00005606      -0.00014252       0.00006937       0.00017357      -0.90161979
H        7.41544488       7.08836918       2.65701414      -0.86373226      -1.90262658       1.22797914       0.00020301       0.00095739       0.00042359      -0.00058406      -0.00027315       0.00043158      -0.38439294
H        2.89957723       7.22191263       3.08380280       0.00402539      -0.05107211       0.01948822       0.00001287       0.00005465       0.00000929      -0.00002137      -0.00000252      -0.00000238      -0.00737334
H        4.62996820       5.32533763       6.26917497    -229.81819824    -100.38883189     -38.54943733      -0.08752174      -0.01709995      -0.00226646      -0.00656592      -0.01622188      -0.04011731       6.20753141
H        6.97111072       6.08863545       3.27596490       0.43424744       1.71775523      -1.04959987       0.00052405       0.00111528       0.00045270      -0.00055515      -0.00027838       0.00061426      -0.46816073
H        3.58035087       2.72309825       6.44550691       0.26823330      -0.12696499      -1.72502497       0.00004777       0.00016113       0.00123543       0.00018766      -0.00020170      -0.00005119      -0.26571397
H        5.55652427       4.83813983       3.64340511     242.81474414    -389.52507164     304.20366131      -0.04361146      -0.11270503      -0.06872729       0.08806566      -0.05491795       0.07041860      15.41346003
H        7.06831075       7.32381092       5.02781020      -0.03413799      -0.09357720      -0.08687281       0.00002524       0.00005421       0.00019241       0.00004217      -0.00003735       0.00001920      -0.03467904
H        2.81860871       3.71759183       4.18529701       1.01151847       1.26722682      -0.09307880       0.00077035       0.00159884       0.00012820      -0.00022740       0.00007075      -0.00064519      -0.83681438
H        6.90896007       2.78781512       6.39724103       0.00283762       0.02810847       0.01137941       0.00000034       0.00003360       0.00000551       0.00001360       0.00000137       0.00000339      -0.00385699
H        3.81385402       2.50722491       5.09223942      -0.38269395       1.95176671      -0.41348220       0.00013693       0.00072038       0.00217435      -0.00064525      -0.00015916      -0.00011520      -0.67899091
