20
Lattice="10.0 0.0 0.0 0.0 10.0 0.0 0.0 0.0 10.0" Properties=species:S:1:pos:R:3:forces:R:3:stresses:R:6:energies:R:1 energy=-65.28558910363707 stress="-0.006760107686819836 -0.0031402262693527075 -0.0011954470029653598 -0.0031402262693527075 0.0011439562351262215 0.0013741273252835056 -0.0011954470029653598 0.0013741273252835056 -0.0033977677539408693" free_energy=-65.28558910363707 pbc="F F F"
H        4.92290931       5.94541447       5.47838548       0.43251143      -0.48250112       0.82699514       0.00023819       0.00025077      -0.00086062      -0.00144736       0.00017566       0.00007350      -4.71420029
H        4.69918213       4.59886911       4.16412400       4.49057307      -0.12903463      -2.48922607      -0.00390729      -0.00041758      -0.00035170       0.00076840      -0.00093644      -0.00124204      -2.89332905
H        4.63096985       5.38310026       6.43696152      -2.63241907       1.27062600       1.16821682      -0.00091798      -0.00099566       0.00010312      -0.00148746       0.00081245      -0.00002067      -3.56117185
H        3.63930472       5.81529829       6.67556925      -0.37583803      -0.47306543       0.62211147       0.00015900       0.00014002       0.00002003       0.00046554      -0.00016437      -0.00001132      -1.77396071
H        5.56028897       5.97381168       6.36556723      -0.07667178      -0.25771285      -0.18399926       0.00076032       0.00097241       0.00022805       0.00073842      -0.00036199      -0.00059464      -2.71109999
H        5.43512240       4.95751472       5.85402544       0.27071201       0.87908931       0.60981143      -0.00168772       0.00045639      -0.00085838      -0.00019343       0.00152510      -0.00008260      -4.67496768
H        4.48810992       6.46984881       6.35205923       1.31654494       0.11289708      -0.52450607       0.00117509      -0.00005466       0.00028795       0.00046659       0.00021401      -0.00035511      -2.65567291
H        5.29947957       5.21817836       4.78551562      -0.28910398       0.31773056      -0.65490827      -0.00257956      -0.00325258      -0.00222298      -0.00198185      -0.00186025      -0.00014451      -4.69242659
H        4.28589548       5.59954735       4.60820328       0.13195834      -0.80327036      -0.83699546      -0.00036435       0.00134780       0.00025077       0.00140722      -0.00057874       0.00048550      -4.36094516
H        3.82908627       5.93826186       5.60183434       2.31533784      -1.31068463      -1.98489727       0.00086243       0.00073949       0.00135984      -0.00000045       0.00093982      -0.00121707      -3.76018987
H        6.30079395       5.38573066       4.33888642      -0.38620679       0.04694205       0.02273514       0.00053241       0.00012798       0.00031574       0.00004262      -0.00022034       0.00014968      -1.75707090
H        3.26778366       5.88212199       4.31478118       0.00661680      -0.62495696       0.80212033      -0.00009343       0.00068019       0.00111030       0.00028012       0.00037047      -0.00023545      -1.87391362
H        4.40730931       4.96279225       5.46822628       0.22101423      -0.90754497      -1.01516589      -0.00042364      -0.00103915      -0.00118139       0.00040747      -0.00158524      -0.00024002      -5.11323545
H        6.13453377       4.58536535       5.09657295       1.74994121       0.04599440       0.40886250      -0.00032264       0.00076815      -0.00023504       0.00041090       0.00020942       0.00028140      -3.17864875
H        3.38760556       5.07848099       5.07583251      -0.45916019      -0.10178060       0.01162130       0.00045420      -0.00062468      -0.00013143      -0.00006025      -0.00041080       0.00024758      -3.30418888
H        5.09556990       4.18357987       5.11004793      -0.94690644      -1.00102466       0.57576443       0.00063081       0.00015375      -0.00013338       0.00032176       0.00026197       0.00005913      -3.82730065
H        6.05102169       5.72724778       5.37644169       0.60253167       0.72850920       1.27750019       0.00067680       0.00073166      -0.00024241       0.00020359      -0.00067348      -0.00090731      -3.19054667
H        3.67699983       4.84832622       4.02897869      -5.71707414       3.83281024      -1.08595807      -0.00249887       0.00020027       0.00003014       0.00081737       0.00005137       0.00085545      -2.64174303
H        5.80075507       3.90718339       5.93699259      -0.38590659       1.01092971      -0.76221803       0.00046187       0.00076427       0.00046289      -0.00037896       0.00010221      -0.00026029      -1.74626957
H        3.97904022       4.16930431       4.83850526      -0.26845455      -2.15395232       3.21213564       0.00008424       0.00019510      -0.00134925       0.00059390       0.00093372       0.00001858      -2.85470749
