20
Lattice="10.0 0.0 0.0 0.0 10.0 0.0 0.0 0.0 10.0" Properties=species:S:1:pos:R:3:forces:R:3:stresses:R:6:energies:R:1 energy=-67.94229396771229 stress="-0.0007833770780207107 -0.003792609574128356 0.0010133718963052304 -0.003792609574128356 0.0034795574124550812 -0.0006248289638090945 0.0010133718963052304 -0.0006248289638090945 0.001028491146123155" free_energy=-67.94229396771229 pbc="F F F"
H        5.00957121       5.93023598       5.44597864       0.91706752       0.21174362      -0.73161583      -0.00234641       0.00014639      -0.00048382      -0.00075278      -0.00006016       0.00080564      -4.73210180
H        4.67110354       4.71269120       4.10703206      -4.46309786       1.68271204       0.28950713       0.00108830       0.00126567       0.00030942       0.00035188      -0.00109654      -0.00041919      -3.18560876
H        4.43015307       5.24792140       6.19651913      -1.32324769       1.00060372       0.35819511       0.00056485      -0.00005897      -0.00020564      -0.00124700       0.00102687       0.00101606      -4.18183704
H        3.47458098       5.75990667       6.38842505      -0.36155131       0.50095517       0.31786092       0.00057131       0.00022542       0.00030613       0.00038699       0.00035020       0.00043367      -2.30174896
H        5.42341013       5.74926848       6.44559867       0.15603195       0.28003669       0.39214858       0.00120451      -0.00023280       0.00021119       0.00005471      -0.00038170       0.00018132      -2.75676578
H        5.36246717       4.90762028       5.74999390      -0.26836622      -1.95468575      -1.45041997      -0.00186464      -0.00156612      -0.00027907      -0.00106942       0.00066827      -0.00029919      -4.77664234
H        4.47487934       6.33810657       6.32726237      -1.14640048       0.28222532       0.33271126       0.00089399      -0.00004577       0.00017159       0.00022773      -0.00001657       0.00025019      -2.74663783
H        5.41383210       5.29064301       4.66451421       0.05193078      -1.45463232       1.62507453      -0.00052628       0.00037058       0.00046036      -0.00111155       0.00008277      -0.00000137      -4.73081729
H        4.44312361       5.83757130       4.44043887       1.47633740      -0.35389518      -0.45553445       0.00176926       0.00073321       0.00070711       0.00090669       0.00032371      -0.00048148      -3.40847825
H        3.93950476       5.96915618       5.42310395       0.31326335      -0.13204849      -0.96999765      -0.00343993       0.00029845      -0.00053487       0.00042411       0.00032236      -0.00090099      -4.37186612
H        6.48536765       5.48551660       4.47297034       0.18258933       0.50201978      -0.22072422       0.00031882      -0.00006009       0.00014606       0.00010079      -0.00019629       0.00000237      -1.72603170
H        2.99211903       5.86278003       4.90820847      -0.47987959      -1.42857302       1.05043640       0.00022230       0.00056641       0.00074062      -0.00088677      -0.00007742      -0.00057604      -1.87415313
H        4.45535211       5.02363952       5.14798420       5.20067287       0.03416462      -0.20193175      -0.00322070      -0.00358949      -0.00467623       0.00001628      -0.00010939      -0.00133611      -5.67422308
H        6.18364118       4.60664018       5.07859898       0.88021477       0.96883225       0.49548055      -0.00008552       0.00040521      -0.00018324       0.00065659       0.00025289      -0.00043485      -3.20530331
H        3.46567313       4.98885540       5.56485372      -1.34310839      -0.55457613      -0.29546956       0.00027126       0.00118732       0.00164761       0.00040496       0.00099596      -0.00074829      -3.51318187
H        5.16941216       4.18614015       4.93186049      -1.85351080       1.23258436       0.14611449       0.00075850       0.00144128      -0.00055299       0.00016974      -0.00060259       0.00004124      -3.77500268
H        6.08343683       5.68175825       5.49807523       0.43283723      -0.53214705      -0.39266334       0.00021021       0.00056074       0.00095403       0.00076152       0.00008779      -0.00025799      -3.22547484
H        3.61848171       5.08297811       4.44593518       2.25277223      -1.19844914       0.55951006       0.00075884       0.00078125       0.00101987       0.00041349      -0.00002243       0.00004158      -3.42076292
H        5.77347414       3.87646580       5.81899375      -0.33977023       0.39581022      -0.00664048       0.00037847       0.00059815       0.00014695      -0.00014162       0.00012556      -0.00022362      -1.75969802
H        4.02217774       4.09208262       4.85116374      -0.28478487       0.51731930      -0.84204181       0.00168947       0.00045273       0.00112342      -0.00029118      -0.00065993      -0.00088556      -2.57595826
