20
Lattice="10.0 0.0 0.0 0.0 10.0 0.0 0.0 0.0 10.0" Properties=species:S:1:pos:R:3:forces:R:3:stresses:R:6:energies:R:1 energy=-22.56429895148238 stress="0.007196420709827901 -0.0008643880185025402 -0.0008251916579161643 -0.0008643880185025402 0.004458495710795582 -0.0007182209170623164 -0.0008251916579161643 -0.0007182209170623164 0.003595489016522463" free_energy=-22.56429895148238 pbc="F F F"
H        5.23408127       6.00027362       6.82160939      -0.36890787       0.57872424       0.06732974       0.00001055       0.00004630      -0.00004536      -0.00004055      -0.00001848      -0.00012753      -2.09314077
H        4.01235546       3.56825252       4.19135952      -2.53501697       0.56733053       1.32818644       0.00174593       0.00118236       0.00068015      -0.00054583      -0.00030794      -0.00024960      -1.17354752
H        4.13759971       5.88808763       6.97508841       0.59822139      -1.26774013      -0.35459110      -0.00018343      -0.00016569       0.00022006       0.00018908      -0.00021917      -0.00003991      -2.53432385
H        3.31293615       5.23202928       7.36665603       0.54262146       0.41880793      -0.42147240       0.00035706       0.00034564       0.00019444      -0.00008313      -0.00022976       0.00013823      -1.12042620
H        6.29252771       5.77044196       7.09909216      -0.04332332      -0.06679673      -0.01477694       0.00015438       0.00000406       0.00002794       0.00002141       0.00005281       0.00004943      -1.04708737
H        5.77537025       5.16821876       6.30676925      -0.38509061      -0.10162108      -0.13384808       0.00034029       0.00000786       0.00005982      -0.00003178      -0.00005162      -0.00007678      -1.54416742
H        3.80761659       6.95058830       6.96074156       0.16561506      -0.23998728      -0.06973868       0.00038224       0.00024691       0.00004778       0.00002911      -0.00007016      -0.00007264      -1.14242096
H        5.56495944       5.56705543       3.26149055       0.40197978       0.64158898      -0.20591588       0.00019609      -0.00006192      -0.00005372       0.00016473       0.00007998       0.00009626      -1.03589968
H        3.14938273       4.83375830       4.05558570       0.83632528      -0.50508963       0.03912187       0.00040274       0.00045828       0.00006952      -0.00005625       0.00005951      -0.00042810      -0.67553769
H        3.07627976       6.12756811       6.73134704       0.00185655       0.01682607      -0.14209467       0.00011363       0.00009689       0.00003651       0.00005348      -0.00010539      -0.00002852      -1.54948022
H        7.17595262       6.87582940       3.18112822      -0.27978783      -0.17769102       0.45929824       0.00013322       0.00010132       0.00023323      -0.00002117      -0.00006938       0.00011012      -1.01553753
H        2.89270668       7.13443169       3.12074442       0.00404792      -0.03628283       0.01474294       0.00000052       0.00004174       0.00000689      -0.00001696       0.00000189      -0.00000466      -0.00548574
H        4.66479051       5.29340894       6.16284243      -0.52952978       0.51924854       0.89405666       0.00078901       0.00034918       0.00053328       0.00028744      -0.00026921      -0.00018754      -1.66060604
H        6.47076915       6.12306632       3.62999649       0.03031916       0.18257865       0.24799685       0.00023647       0.00033702       0.00014029       0.00008173       0.00005131       0.00027117      -1.52984822
H        3.55192196       3.03784112       6.10850004      -0.04070039       0.20279152      -0.12890350       0.00003132       0.00011006       0.00020569      -0.00009753       0.00003149       0.00000696      -0.55624532
H        5.25579769       4.68409293       3.86510746      -0.52915839      -0.58329431       0.48055004       0.00050835       0.00018828       0.00002728       0.00006403      -0.00006570       0.00030018      -0.64926497
H        6.95748947       6.90450211       4.28950058      -0.22367477      -0.45084082      -0.73957540       0.00011828       0.00020213       0.00035364       0.00014979       0.00005926       0.00014397      -1.00942406
H        2.84789316       3.79298555       4.32458709       2.64822866      -1.36154028       0.40314683       0.00153609       0.00018436       0.00027904      -0.00018237       0.00012541      -0.00056986      -1.09971277
H        6.89260358       2.87006885       6.40981471      -0.01454933       0.02992797      -0.00134192       0.00000813       0.00003439       0.00000007      -0.00000154       0.00000075      -0.00001672      -0.00438352
H        3.81872773       2.80747690       5.04554985      -0.27947602       1.63305970      -1.72217103       0.00031555       0.00074933       0.00057894      -0.00068190       0.00011919      -0.00017887      -1.11775911
