20
Lattice="10.0 0.0 0.0 0.0 10.0 0.0 0.0 0.0 10.0" Properties=species:S:1:pos:R:3:forces:R:3:stresses:R:6:energies:R:1 energy=-69.50399743874868 stress="0.0017532406360551667 -0.001229881950871657 -0.0004333211605398123 -0.001229881950871657 0.0022194677446084584 -0.0003002982304556166 -0.0004333211605398123 -0.0003002982304556166 -0.0008530959026068805" free_energy=-69.50399743874868 pbc="F F F"
H        4.92870036       5.98005410       5.46396610       0.37165671      -0.25849694      -0.09779855      -0.00066850       0.00070590      -0.00078259      -0.00076443      -0.00091606      -0.00025280      -4.73591429
H        4.64015615       4.85356006       4.06829958      -0.29498978       0.99820978      -1.18531587       0.00144198       0.00030804      -0.00050520       0.00031383       0.00009287      -0.00023157      -3.24964826
H        4.45677890       5.16789605       6.18961011      -0.75412062       0.66546863       0.26917514       0.00055997      -0.00001399      -0.00033022      -0.00139191       0.00047816       0.00030982      -4.21888897
H        3.39815454       5.48174589       6.34372428       0.23974331       0.51159850       0.29184112       0.00103475       0.00027147       0.00020916       0.00041713       0.00032485       0.00040684      -2.69030494
H        5.34710231       5.79507645       6.44962964       0.37109278       0.17904426       0.17131973       0.00141714       0.00011851       0.00027023       0.00034310      -0.00071582      -0.00006496      -2.73241865
H        5.43616505       4.96383133       5.72109751      -1.07118891      -0.59762104      -0.57121085      -0.00166692      -0.00032350       0.00041911      -0.00045569       0.00033458      -0.00076160      -4.72005126
H        4.28633790       6.23570076       6.34455008      -0.03767949      -0.27902151      -0.23527488       0.00161274      -0.00000607       0.00051665       0.00030199      -0.00007624       0.00027342      -2.74250108
H        5.42518043       5.42201002       4.64674470       0.04814623      -1.47616881       0.28159031      -0.00120185       0.00046895       0.00090394      -0.00023864       0.00023930       0.00029855      -4.73678953
H        4.43459606       5.88949313       4.45863993      -0.56852935      -0.10886001       0.23858035       0.00063464       0.00041604       0.00063162       0.00004378       0.00000649       0.00023788      -3.39107348
H        3.84647366       5.82100917       5.40806829       0.74485274      -1.01905785      -0.38035789      -0.00148223       0.00084588      -0.00030845      -0.00035341       0.00086402      -0.00057723      -4.62612609
H        6.46896161       5.76323240       4.47104635      -0.22585859       0.07118504      -0.16661343       0.00049575       0.00009932       0.00007807      -0.00005285      -0.00019588       0.00014068      -1.71728108
H        2.83415525       5.40424564       5.34604504       0.20612565      -0.29889978      -0.09627020       0.00047186      -0.00017905       0.00099070       0.00028846      -0.00017611      -0.00024415      -2.21323734
H        4.53599714       5.02472878       5.13076179       0.64445895       0.52459836       0.61144925      -0.00540727      -0.00483176      -0.00637883      -0.00084945       0.00008104      -0.00050111      -5.61893096
H        6.26394127       4.81102068       5.01417617       0.26051222       0.11347118       0.35144900       0.00034289       0.00052139      -0.00012919       0.00064697       0.00015314       0.00006294      -3.18815965
H        3.62988936       4.68049127       5.60198696       0.14017811      -0.09406928      -0.45156965      -0.00050767       0.00125354       0.00065371       0.00032378       0.00015529       0.00020438      -3.71530873
H        5.27473215       4.29913758       4.81451945       0.08648941       0.93208089      -0.57925051       0.00109358       0.00105154       0.00039573       0.00012774       0.00022301       0.00095885      -3.77222299
H        6.03006813       5.84132613       5.49245136       0.13764559       0.23704532       0.58407186       0.00052760       0.00017672       0.00081021       0.00066560      -0.00021894      -0.00045280      -3.21355238
H        3.61498927       5.11718093       4.55935835       0.23379069       0.03661008       0.17657739       0.00109961       0.00074063       0.00105733       0.00034629      -0.00091932      -0.00013302      -3.70738940
H        5.91540916       3.96249927       5.66106832      -0.22202971       0.44161616      -0.02188875       0.00044177       0.00059471       0.00010195      -0.00016219       0.00004600      -0.00022139      -1.75882416
H        4.12397293       4.11573806       4.72176681      -0.31029596      -0.57873299       0.80949641       0.00151341       0.00000120       0.00054297       0.00014959      -0.00021372      -0.00068262      -2.75537419
