20
Lattice="10.0 0.0 0.0 0.0 10.0 0.0 0.0 0.0 10.0" Properties=species:S:1:pos:R:3:forces:R:3:stresses:R:6:energies:R:1 energy=-57.7540762341078 stress="-0.005619949245609065 -0.01085710856388964 -0.00633998387166144 -0.01085710856388964 -0.00294589699203832 -0.00513702440498551 -0.00633998387166144 -0.00513702440498551 -0.002613467980773267" free_energy=-57.7540762341078 pbc="F F F"
H        4.84032084       6.05886072       5.60399261       1.17992881       0.93111845       1.53061743      -0.00012095      -0.00008477      -0.00078033      -0.00138542      -0.00028611      -0.00055184      -4.14860738
H        4.73589295       4.10645165       4.09157586      -5.46626253      -1.22032113      -4.31957241       0.00039879       0.00035969      -0.00160847      -0.00045169      -0.00195966      -0.00049827      -2.18622566
H        4.54315916       5.28754551       6.47965905       1.98620820       2.01598974      -1.35422515       0.00114849       0.00068085       0.00037212      -0.00126485       0.00001065       0.00018640      -3.55998520
H        3.53799950       5.65126569       6.75829777      -1.01312084      -0.59126470       0.52025260      -0.00016483      -0.00008723       0.00009717       0.00036155      -0.00010100      -0.00004653      -1.72618989
H        5.45627898       5.96048418       6.50037653      -1.01357066       0.46986907       0.07319242       0.00169013       0.00018553       0.00053661       0.00018977      -0.00080116      -0.00001564      -2.69607769
H        5.46122685       5.07816965       5.83955617       1.79804696      -2.23382072       0.92676906      -0.00067010       0.00056239       0.00026087      -0.00030765      -0.00060606      -0.00174789      -4.61161398
H        4.35059707       6.37866125       6.54712994       1.45091677      -0.78472749      -1.47435731       0.00125668       0.00023418       0.00064405       0.00070383       0.00035502      -0.00041266      -2.60296469
H        5.26828235       5.48346368       4.79128513      -3.66497920       0.61504960      -6.42902739      -0.00051336      -0.00322710      -0.00090343      -0.00070628      -0.00030566      -0.00006784      -4.20784957
H        4.26618461       5.08154781       4.37967023       1.18733363      -1.80108967       0.09090274       0.00233739       0.00208700      -0.00022128      -0.00047946       0.00030386      -0.00007584      -3.51920535
H        3.76098273       5.84068996       5.69389661       0.68491973      -0.48740139       0.61700176       0.00060738       0.00082383       0.00134220       0.00053511       0.00125117       0.00016200      -3.17172027
H        6.28542698       5.78782289       4.41027957      -0.50814898       0.51245117      -1.57593993       0.00065532      -0.00029634      -0.00053084       0.00005625      -0.00015046       0.00029846      -1.69403531
H        3.19877476       6.34061025       3.63613801       0.34673228      -0.49474224       0.42304530       0.00019317       0.00035571       0.00028268      -0.00024005       0.00017723      -0.00020883      -0.11618870
H        4.47288096       5.05999212       5.43017562      -1.26833073      -0.83771229       1.37701106      -0.00444056      -0.00428256      -0.00472154      -0.00107402      -0.00141660      -0.00038248      -4.72309156
H        6.16959944       4.86391886       4.99369766       9.88302905       4.37837893       4.21360066      -0.00444526      -0.00000968       0.00098965       0.00041321      -0.00044873      -0.00266838      -2.89240416
H        3.44088532       4.87976495       5.13731963      -1.08358373       1.26573668      -1.64740974      -0.00035393       0.00085643       0.00173285       0.00099941      -0.00045591       0.00046029      -2.74294141
H        5.23267316       4.43180792       4.95825052      -6.20495283      -7.53034220       6.72384759      -0.00511379      -0.00361668      -0.00202034      -0.00131522      -0.00045339      -0.00353836      -3.50948893
H        5.96094509       5.96215997       5.44609114       2.11276341       1.85100733       4.91092329      -0.00015096       0.00028622      -0.00084245      -0.00000482      -0.00131645      -0.00117420      -3.07859657
H        3.59104520       4.19330889       4.18992656       1.11867217       2.08448702       0.81478459       0.00105559       0.00085282       0.00052380       0.00088761      -0.00022061       0.00023601      -2.10009744
H        6.12663736       4.10767737       5.91608193      -3.00470713       4.25289730      -3.50251427       0.00145928       0.00201792       0.00167966      -0.00106366       0.00078695      -0.00104387      -1.38965657
H        4.19196830       4.07577442       5.10411035       1.47910560      -2.39556347      -1.91890229      -0.00044843      -0.00064410       0.00055354      -0.00099065      -0.00070308       0.00023236      -3.07713592
