20
Lattice="10.0 0.0 0.0 0.0 10.0 0.0 0.0 0.0 10.0" Properties=species:S:1:pos:R:3:forces:R:3:stresses:R:6:energies:R:1 energy=-67.32509251525154 stress="0.0076494670663132605 -0.004142701960732141 7.424407291622687e-05 -0.004142701960732141 0.0003658993129904192 0.0009772520826666561 7.424407291622687e-05 0.0009772520826666561 -0.0014412441433927306" free_energy=-67.32509251525154 pbc="F F F"
H        5.01090972       5.93748065       5.43783093      -0.38316607       0.52988458       0.36051471      -0.00133602       0.00059442       0.00027163      -0.00045464      -0.00010033       0.00034769      -4.70656252
H        4.61701524       4.67280060       4.16144687      -3.64929344       2.54716009      -1.73541477       0.00022112       0.00091804      -0.00041452       0.00072782      -0.00092155      -0.00039342      -3.22925925
H        4.49640586       5.28125425       6.23589610      -2.03577767       0.57864866       1.44627206       0.00007120      -0.00058057      -0.00063668      -0.00123337       0.00094613       0.00090044      -3.98676821
H        3.50698782       5.70795088       6.47575225       0.22525254      -0.48037038      -1.23753616       0.00071020       0.00082682       0.00096510       0.00091767       0.00017952       0.00060526      -2.14632168
H        5.47903631       5.79642816       6.41578192      -0.51283237      -0.03640652      -0.23644646       0.00142047       0.00048641       0.00039464       0.00049098      -0.00045694      -0.00031006      -2.75129544
H        5.38828982       4.90725751       5.74779410       0.80486173       0.67732700       0.88278838      -0.00195012      -0.00128734      -0.00083110      -0.00083911       0.00066587      -0.00028471      -4.74799160
H        4.47139769       6.37061410       6.36157544       1.41107635      -0.80481579      -0.21284299       0.00172759       0.00018630       0.00054770       0.00027831      -0.00074406      -0.00027456      -2.65237887
H        5.38200608       5.25826142       4.67902016      -0.66390111       0.70546918      -0.98740996      -0.00045507      -0.00048904      -0.00040654      -0.00084070       0.00029508      -0.00036445      -4.72217342
H        4.34950653       5.79644218       4.47564115       1.46012866       0.19627253      -0.09832441       0.00316611       0.00067367       0.00062959       0.00108534       0.00021899      -0.00087829      -3.61752084
H        3.93690083       5.95203854       5.49853731       0.22148497       0.04444289      -0.11125341      -0.00303519      -0.00021162      -0.00170417       0.00017395      -0.00038776      -0.00092738      -4.28362059
H        6.42433136       5.49760373       4.38822582      -0.29026372       0.02201297       0.52662869       0.00042740       0.00018486       0.00047540      -0.00002871      -0.00032593       0.00007596      -1.72737673
H        3.14566078       5.94495659       4.76500404      -0.14684109       0.21929414       0.27842064       0.00091421      -0.00012863       0.00001596      -0.00130744      -0.00057426      -0.00019922      -2.01660004
H        4.44718134       5.01251244       5.20082336      -0.60201496      -1.43951986      -1.24497368      -0.00114060      -0.00322330      -0.00374749       0.00014136       0.00041527      -0.00113112      -5.67329969
H        6.19955287       4.62053477       5.04652339       0.58449587       0.34912245       0.25683715       0.00023518       0.00023301      -0.00011800       0.00056005       0.00001157      -0.00000772      -3.20522300
H        3.39228093       4.99940830       5.49718879       1.00816513       0.75846072       1.30657999       0.00112765       0.00180600       0.00196356       0.00060921       0.00052523      -0.00058944      -3.28485008
H        5.17007240       4.18408161       4.95907824      -1.62544755      -0.88746849       0.60599024       0.00150742       0.00055293      -0.00113255       0.00012499      -0.00077880       0.00009098      -3.72562535
H        6.09382374       5.68131734       5.44795471       0.03443653       0.11877824      -0.30896427       0.00051464       0.00032071       0.00088238       0.00061952      -0.00002082      -0.00028233      -3.24526718
H        3.56352902       5.01566512       4.40499283       4.26815697      -2.95589712       0.34375715       0.00123809      -0.00113092       0.00060197      -0.00004138       0.00135009       0.00048213      -3.23635004
H        5.83688464       3.89891705       5.81594646      -0.33748532      -0.03721452      -0.12997398       0.00036240       0.00036128       0.00021020      -0.00013599       0.00021012      -0.00016603      -1.75170195
H        3.97998860       4.09445250       4.89249704       0.22896456      -0.10518076       0.29535108       0.00192278       0.00027287       0.00059166       0.00012938      -0.00043316      -0.00083645      -2.61490604
