20
Lattice="10.0 0.0 0.0 0.0 10.0 0.0 0.0 0.0 10.0" Properties=species:S:1:pos:R:3:forces:R:3:stresses:R:6:energies:R:1 energy=-66.67094283836208 stress="0.00011402466308105278 -0.0006478544090355589 0.002009705144015942 -0.0006478544090355589 0.0003871183423091794 0.00250036803212061 0.002009705144015942 0.00250036803212061 0.0005544463948575257" free_energy=-66.67094283836208 pbc="F F F"
H        4.97843055       5.91130105       5.47697893      -0.36019852      -0.16143171       0.00163491      -0.00074944       0.00028122      -0.00237155      -0.00118827       0.00028493       0.00076155      -4.75965249
H        4.56436250       4.71192131       4.15019550      -0.15691406       0.89641739      -1.16037835      -0.00209801      -0.00028543       0.00068759       0.00075071      -0.00057379      -0.00114354      -3.21838113
H        4.59164449       5.28000850       6.33032513      -0.98802017      -0.00471515      -0.20733407      -0.00001325      -0.00020125       0.00060886      -0.00030827       0.00037818       0.00037629      -3.86992578
H        3.70628585       5.81611630       6.74861942      -0.00409797      -0.41471354      -0.08621236       0.00037955       0.00015538       0.00040501       0.00034339      -0.00008414      -0.00000710      -1.76938534
H        5.57454783       5.81814537       6.39108023       0.30824366      -0.15601444      -0.10189769       0.00078810       0.00027032       0.00046224       0.00038840      -0.00052138      -0.00007582      -2.76037528
H        5.44496672       4.91744036       5.74961677      -2.73105347      -0.84755117      -0.49019519      -0.00080416      -0.00095840      -0.00029557       0.00009469       0.00141238      -0.00011809      -4.74614551
H        4.59562553       6.39090358       6.38479985      -0.29735758      -0.01466884       0.16024955       0.00056710       0.00021508       0.00007151       0.00025018       0.00045620      -0.00002653      -2.70202778
H        5.30644795       5.25531344       4.69615307       1.83987486      -0.58005006       0.13942640      -0.00257852      -0.00158887      -0.00172311      -0.00147304      -0.00029608      -0.00016026      -4.71321468
H        4.31970478       5.74904158       4.59536801      -1.44623311       0.27600452      -0.16285684       0.00061459       0.00049710       0.00078384       0.00067265      -0.00072082       0.00018620      -3.99761982
H        3.90055276       5.85464655       5.66089199       1.83321275       0.11126205      -0.54021725      -0.00048919       0.00016076       0.00012793       0.00058087      -0.00038562      -0.00050507      -4.26972155
H        6.28494114       5.47353471       4.25896562       0.57450918       0.71558288       0.84840636      -0.00005297       0.00009823       0.00093508       0.00025226      -0.00014484      -0.00003901      -1.72681438
H        3.23606976       5.96590870       4.79329373       0.07067730      -0.21016408      -0.26984378       0.00054031       0.00032305      -0.00025912      -0.00025014      -0.00006034      -0.00033975      -2.26185021
H        4.42406885       4.93028126       5.29463198       1.85493383       2.05935357       0.82885054      -0.00069106      -0.00142821       0.00036299       0.00035491       0.00048842       0.00008989      -5.49527457
H        6.16880817       4.62906184       4.97555678      -0.03162522      -0.12406495       0.23552139       0.00055512       0.00068803      -0.00025926       0.00053949       0.00022083       0.00029515      -3.18447554
H        3.33518229       4.97301332       5.31723515      -0.45452320      -0.55720397       1.19795923       0.00026830       0.00053319      -0.00013313       0.00013230      -0.00020429       0.00003822      -2.99966976
H        5.12280856       4.17205107       4.94208020       0.18755982       0.70393248       0.11031097       0.00175951       0.00081067       0.00014123       0.00038234       0.00025691       0.00098144      -3.67873119
H        6.07772881       5.71813792       5.36474983      -0.00982347      -0.45601082      -1.38428682       0.00075528       0.00064668       0.00136407       0.00085214      -0.00022470      -0.00039479      -3.22372591
H        3.52969392       5.04627119       4.24611307      -0.00719860       0.01498585      -0.52251262      -0.00024604      -0.00035481      -0.00013021      -0.00003633       0.00129848       0.00031037      -2.90231952
H        5.83452514       3.88757166       5.75077795       0.15357077      -0.20445097      -0.11692537       0.00029620       0.00025619       0.00017729      -0.00021710       0.00002164      -0.00007406      -1.75086005
H        3.89536599       4.12930803       4.78007769      -0.33553681      -1.04649905       1.52030097       0.00131261       0.00026819      -0.00040124       0.00037919       0.00040774      -0.00080294      -2.64077236
