20
Lattice="10.0 0.0 0.0 0.0 10.0 0.0 0.0 0.0 10.0" Properties=species:S:1:pos:R:3:forces:R:3:stresses:R:6:energies:R:1 energy=-12.60917562540605 stress="0.0033519227657406478 0.004853338652360443 -0.0006433058495656161 0.004853338652360443 0.013081371349446742 -0.004355472487470096 -0.0006433058495656161 -0.004355472487470096 0.006381556563388236" free_energy=-12.60917562540605 pbc="F F F"
H        5.95001674       6.73061234       7.06736443      -0.27946028      -1.13509963      -0.61547368       0.00032416       0.00075541       0.00028368       0.00033775       0.00013057       0.00012840      -0.22443517
H        3.85789650       3.29621571       4.15675303      -0.95876792      -0.70711235       1.95638717       0.00063041       0.00084654       0.00107193      -0.00077248      -0.00011279      -0.00014265      -0.93718470
H        3.66107783       5.93512180       6.83792684      -2.30024504      -0.60407611       1.52816966      -0.00156548       0.00059482      -0.00014480      -0.00055025       0.00039069       0.00137345      -1.81038324
H        3.17997919       4.75491737       7.07380326       1.03832633       3.48209611      -0.93811252       0.00084925       0.00223117       0.00017637      -0.00042512      -0.00025961       0.00035906      -0.63878162
H        7.10324422       5.20147438       7.33921013      -0.39953074       0.19777297      -0.22403060       0.00028417       0.00017770       0.00010613      -0.00003576       0.00015786      -0.00013599      -0.08566612
H        5.61568949       5.47547637       6.26348244       0.57068514       0.87471876       0.68717466       0.00026511       0.00059954       0.00035793       0.00033020       0.00019485       0.00006758      -0.71741886
H        3.62423398       7.05257422       6.79267257      -0.90234563      -1.07830756       0.03257899       0.00071185       0.00062248       0.00001165      -0.00000254      -0.00005513       0.00041793      -0.75365671
H        5.74334273       5.68035990       3.13986309      -0.85450328      -1.58603670       0.90419035       0.00027979       0.00090697       0.00028724      -0.00048990      -0.00027158       0.00050600      -0.80505935
H        2.61481271       4.90874798       4.06737349       0.29824475      -0.94908877       0.07726198       0.00011941       0.00062414       0.00001571      -0.00007440       0.00000977      -0.00017526      -0.52760249
H        2.56729687       6.08140351       6.86291737       0.46004841      -0.02100303       0.11585051       0.00015572       0.00123804       0.00002541      -0.00014919       0.00001151       0.00022622      -0.88167852
H        7.38482546       7.05312547       2.68230290      -1.11946203      -1.81009952       1.08038369       0.00036821       0.00091891       0.00035673      -0.00050794      -0.00032231       0.00056770      -0.35765261
H        2.89915414       7.21623278       3.08615554      -0.00411745      -0.03341391       0.01420869       0.00000059       0.00003855       0.00000697      -0.00001639      -0.00000202       0.00000475      -0.00497482
H        4.52431623       5.38727512       6.48952351       1.86652791      -1.84296170      -0.72593813      -0.00066693      -0.00012369      -0.00008223      -0.00033573       0.00033592       0.00093857      -1.15600362
H        6.79420114       6.05478919       3.25335976       1.04409562       1.77517689      -0.89480427       0.00033072       0.00095122       0.00036335      -0.00046507      -0.00030509       0.00056288      -0.86133555
H        3.59995659       2.72653529       6.30269681       0.23765131      -0.09099792      -1.56576651       0.00003621       0.00014115       0.00097407       0.00012249      -0.00014628      -0.00003592      -0.51520477
H        5.18046796       4.62803477       3.73159063       0.71250927       1.52394294      -0.83746766       0.00049057       0.00103241       0.00033844      -0.00052904      -0.00032606       0.00063391      -0.35340628
H        7.06171216       7.30786691       5.01303615      -0.05059600      -0.10498114      -0.09412267       0.00003166       0.00006570       0.00020091       0.00004420      -0.00002355       0.00003330      -0.03633218
H        2.82876245       3.79415134       4.17655946       0.92562919       0.20751360       0.08592840       0.00059167       0.00071184       0.00012008      -0.00016029       0.00008175      -0.00039905      -1.03949170
H        6.90902796       2.79293793       6.39895732      -0.00269506       0.03840305       0.01045453       0.00000343       0.00004766       0.00000519       0.00001252       0.00000140      -0.00000393      -0.00392642
H        3.79174724       2.55212535       5.17196216      -0.28199451       1.86355402      -0.59687257       0.00011141       0.00070081       0.00190679      -0.00068853      -0.00013322      -0.00007361      -0.89898088
