20
Lattice="10.0 0.0 0.0 0.0 10.0 0.0 0.0 0.0 10.0" Properties=species:S:1:pos:R:3:forces:R:3:stresses:R:6:energies:R:1 energy=-67.07416985021821 stress="0.006186457458909602 -0.0031091002179675616 0.0007502649656251692 -0.0031091002179675616 -0.0028058684929953034 0.0021888326372025576 0.0007502649656251692 0.0021888326372025576 -0.0017051160657871075" free_energy=-67.07416985021821 pbc="F F F"
H        5.00526619       5.92678707       5.44530767      -0.36745847       0.41256291      -0.09848817      -0.00180277       0.00063582       0.00001448      -0.00035177       0.00011233       0.00038833      -4.73472334
H        4.57309428       4.67801535       4.17590411      -2.30145605       2.46766355      -2.00215465      -0.00044394       0.00064781      -0.00039973       0.00085165      -0.00067886      -0.00032367      -3.26216302
H        4.53469896       5.28566181       6.26384088      -1.29794710      -0.54818812       1.22394277      -0.00025101      -0.00108061      -0.00048162      -0.00106017       0.00081531       0.00080605      -3.92719371
H        3.55322074       5.70354218       6.53897010      -0.25917843      -0.41716910      -0.31294968       0.00059287       0.00076616       0.00056848       0.00094891       0.00034945       0.00066513      -2.01932139
H        5.52015221       5.80420223       6.40363392      -0.54240206      -0.13181300      -0.33170618       0.00129684       0.00054713       0.00046044       0.00052380      -0.00043503      -0.00029918      -2.75119920
H        5.40882308       4.90569888       5.74485877       0.37434797       0.57565202       0.27590820      -0.00164710      -0.00096813      -0.00046334      -0.00069509       0.00082221      -0.00030872      -4.74944291
H        4.50887650       6.37146461       6.37526282       1.12535497      -0.23205772      -0.09687620       0.00164512      -0.00010853       0.00055748       0.00022071      -0.00067582      -0.00021170      -2.64960859
H        5.36020274       5.25570232       4.67000358      -0.71736697       0.80606814      -0.41612377       0.00006313      -0.00072999      -0.00015221      -0.00084815       0.00004688      -0.00042188      -4.74381630
H        4.32340087       5.77700993       4.51540128       1.07441940       0.24934513      -0.44337369       0.00297588       0.00061392       0.00045472       0.00103653       0.00010920      -0.00063015      -3.76979399
H        3.93575702       5.92753553       5.54718481       0.49162448       0.88100836      -0.34010221      -0.00320482      -0.00055459      -0.00234447       0.00029392      -0.00031200      -0.00103958      -4.23879175
H        6.39608855       5.49924484       4.34297204      -0.53096775       0.50677435       0.40546994       0.00056113      -0.00002605       0.00047075       0.00015535      -0.00036264       0.00006392      -1.72315964
H        3.17550307       5.95125519       4.78270661      -0.07952877       0.03781405      -0.00667085       0.00088276       0.00002398      -0.00028819      -0.00120218      -0.00062189      -0.00029649      -2.12441807
H        4.44096270       4.98851839       5.23264665       0.82319227      -0.81419358      -0.67666654      -0.00095058      -0.00282998      -0.00285762       0.00014271       0.00033604      -0.00083211      -5.61314908
H        6.20993277       4.64420185       5.02429180      -0.31975398      -0.57329170      -0.03605217       0.00066302      -0.00024936      -0.00040768       0.00069412       0.00018067       0.00001711      -3.19685115
H        3.37541971       4.99439942       5.46561321       0.00711052       0.30691009       0.66013339       0.00054059       0.00139881       0.00211054       0.00044841       0.00033159      -0.00053822      -3.22120538
H        5.16816414       4.19089426       4.94609482      -0.53503202      -1.19006622       1.18770570       0.00201585       0.00029434      -0.00079996       0.00026238      -0.00054408       0.00034107      -3.66025018
H        6.08547377       5.69394446       5.41119160       0.62343085       0.52594486      -0.26316360       0.00024444       0.00001473       0.00084166       0.00048519      -0.00004783      -0.00016332      -3.25539904
H        3.52602607       5.01479233       4.36464835       2.72640317      -1.61083502       0.39084506       0.00088149      -0.00147906       0.00066620      -0.00001759       0.00135871       0.00066385      -3.09939892
H        5.87487884       3.90096711       5.77699656      -0.70875969      -0.08528743      -0.10803357       0.00041819       0.00033781       0.00019396      -0.00007492       0.00033167      -0.00028068      -1.74325312
H        3.91581940       4.11613999       4.87998134       0.41396767      -1.16684155       0.98835620       0.00170536      -0.00006009       0.00015100       0.00037501      -0.00036563      -0.00070887      -2.59103108
