20
Lattice="10.0 0.0 0.0 0.0 10.0 0.0 0.0 0.0 10.0" Properties=species:S:1:pos:R:3:forces:R:3:stresses:R:6:energies:R:1 energy=-68.97003216856538 stress="0.008796345319249688 -0.003474042812362152 0.00011274788230502831 -0.003474042812362152 0.004634511384864605 -0.003295959522543037 0.00011274788230502831 -0.003295959522543037 -0.0003940443635251287" free_energy=-68.97003216856538 pbc="F F F"
H        5.02817040       5.93563931       5.42216780       0.37567614       0.76302645       0.77616499      -0.00033855      -0.00010441      -0.00054414      -0.00079390      -0.00100038      -0.00004386      -4.74053458
H        4.58567609       4.74814357       4.12353211      -0.96860340       0.13906809      -0.90171205       0.00162231       0.00122802      -0.00057516      -0.00033647       0.00002889      -0.00054850      -3.20866020
H        4.43753489       5.21780556       6.20622951      -1.07246631       2.40972160      -0.36326885       0.00277918       0.00071937       0.00024828      -0.00126335       0.00045577       0.00014887      -4.07164196
H        3.43077665       5.77842320       6.28550031       0.50779400      -1.46592775      -0.79746650       0.00149857       0.00040630       0.00060975       0.00054263       0.00048584      -0.00050043      -2.67599094
H        5.42505568       5.77395815       6.43199778      -0.80054222      -0.19275300      -1.08149419       0.00203976       0.00025561       0.00079835       0.00029753      -0.00049663       0.00009822      -2.66422464
H        5.40379891       4.92013443       5.73495875      -1.03364539      -0.14811905       0.93556953      -0.00161863      -0.00138879      -0.00017106      -0.00067229      -0.00000835      -0.00044611      -4.75744415
H        4.42445231       6.31178426       6.27813800       0.33718005       0.02692940      -0.75321730       0.00105380      -0.00004202       0.00068832       0.00049626       0.00023653      -0.00016889      -2.78875291
H        5.43039837       5.26814562       4.63298867       2.32414801      -2.94064097       1.64781703      -0.00194508       0.00012004       0.00075102      -0.00025835      -0.00006796       0.00068207      -4.72277595
H        4.54393812       5.85661240       4.41916416      -2.08191804      -0.11713580      -1.45396711      -0.00022527       0.00058036       0.00010749       0.00015647      -0.00001532       0.00077779      -3.35949743
H        3.92828001       5.95661447       5.32940199       1.25934117      -1.49667284       1.84777095      -0.00082342       0.00124300      -0.00042356      -0.00073511       0.00110427      -0.00032697      -4.56066951
H        6.49302911       5.46769932       4.39092179      -0.15180866      -0.03837386       0.18794636       0.00041597       0.00017082       0.00027126      -0.00006944      -0.00025895       0.00006455      -1.71983937
H        2.85391211       5.71005878       5.26090853       0.87320141       0.00805639       0.83943162       0.00068771      -0.00004549       0.00115265       0.00033875       0.00018548      -0.00019762      -2.17692179
H        4.50082120       5.03222769       5.15353763      -0.67267609       1.00494374       0.71406577      -0.00396831      -0.00421332      -0.00612000      -0.00115062      -0.00014058      -0.00156300      -5.63891786
H        6.22032375       4.61457999       5.06333243      -0.08719042      -0.01335798      -0.37209882       0.00054167       0.00037085      -0.00015464       0.00020949       0.00028305      -0.00001622      -3.20400540
H        3.51737067       4.89228764       5.60012244       1.72045160       0.68266195       0.96989057       0.00040813       0.00124732       0.00041112       0.00043687       0.00021017       0.00073291      -3.72430995
H        5.18136928       4.18762869       4.93467831      -2.65873576       2.21146421      -2.37339176       0.00209731       0.00139257       0.00021240      -0.00040614       0.00000834       0.00016035      -3.73037685
H        6.11231943       5.68327879       5.42105800      -0.41019383       0.82341684       1.06927335       0.00064493       0.00007465       0.00102403       0.00050477      -0.00026882      -0.00037814      -3.17785082
H        3.60012071       5.24072065       4.54367635       2.47858382      -2.18516357      -0.12813593       0.00182602       0.00146616       0.00055056       0.00004144      -0.00035259      -0.00073121      -3.64683656
H        5.79867660       3.88929670       5.80853095       0.12621638       0.05542093       0.18752812       0.00030401       0.00042632       0.00006069      -0.00015360      -0.00003363      -0.00009922      -1.75481397
H        3.97573730       4.14493851       4.86666545      -0.06481246       0.47343522      -0.95070578       0.00179625       0.00072715       0.00070862      -0.00048089      -0.00024237      -0.00111864      -2.64596732
