20
Lattice="10.0 0.0 0.0 0.0 10.0 0.0 0.0 0.0 10.0" Properties=species:S:1:pos:R:3:forces:R:3:stresses:R:6:energies:R:1 energy=-66.77361907660371 stress="0.0025808148688218325 -0.0007570912492900319 0.0012526301395640155 -0.0007570912492900319 -0.0004136145455210004 0.0020326331003182236 0.0012526301395640155 0.0020326331003182236 0.0005646758525738361" free_energy=-66.77361907660371 pbc="F F F"
H        4.97839577       5.90737765       5.47643988       0.09731037      -0.29960019      -0.30841240      -0.00105074       0.00042699      -0.00182663      -0.00091547       0.00045050       0.00064542      -4.77906775
H        4.56679424       4.70071355       4.14355407      -1.44709513       1.29794681      -0.35532214      -0.00139922       0.00029951       0.00079059       0.00076412      -0.00075604      -0.00091297      -3.22035393
H        4.58324494       5.26801413       6.31730836      -0.99196352      -0.63773972       0.15108375      -0.00004768      -0.00037146       0.00058849      -0.00005933       0.00020359       0.00044694      -3.88250604
H        3.69014475       5.80326854       6.73593385       0.31915183      -0.53512094       0.10848241       0.00057985       0.00025818       0.00024094       0.00039852      -0.00009248      -0.00001824      -1.77995008
H        5.57085737       5.79187036       6.39633785       0.07715928       0.13619308      -0.35146452       0.00086183       0.00020189       0.00059884       0.00031565      -0.00041753      -0.00014451      -2.76539892
H        5.43856199       4.90648443       5.73896035      -2.48667519      -0.79725904      -0.44548423      -0.00048533      -0.00087578      -0.00043439      -0.00027171       0.00129953      -0.00038126      -4.76385487
H        4.59559222       6.37529066       6.39482267      -0.27481093      -0.18392110      -0.00939858       0.00071744       0.00021021       0.00020978       0.00028068       0.00036302      -0.00003410      -2.70414952
H        5.30944398       5.25642625       4.68589855       0.77460032       0.37793946      -0.09732930      -0.00198406      -0.00157174      -0.00133402      -0.00121105      -0.00034428      -0.00026320      -4.73588764
H        4.32032678       5.76831198       4.58253159      -0.45568852      -0.11319108       0.09768361       0.00102331       0.00070395       0.00104303       0.00083502      -0.00062338      -0.00012778      -3.92727453
H        3.90678505       5.84818061       5.65903859       0.92168948       1.15441024      -0.97681893      -0.00123111      -0.00029552      -0.00039169       0.00066620      -0.00053658      -0.00020275      -4.25502867
H        6.29597655       5.53405901       4.29038933       0.47636818       0.09938290      -0.31102159       0.00008942       0.00016289       0.00018008      -0.00005035      -0.00010376       0.00001176      -1.73939406
H        3.23369246       5.96334413       4.80677235      -0.19601439      -0.29468149      -0.03960763       0.00051815       0.00040451      -0.00040522      -0.00055676      -0.00016587      -0.00029621      -2.25544361
H        4.41419815       4.94005743       5.27057213       2.47574913       1.43299274       0.89868903      -0.00030363      -0.00188119       0.00043294       0.00030157       0.00078069       0.00004139      -5.55024367
H        6.18101558       4.64927631       4.96624782      -0.08889999      -0.27514767      -0.05628682       0.00062533       0.00045691      -0.00019310       0.00050136       0.00013000       0.00038471      -3.18824292
H        3.32499617       4.96347048       5.35484683      -0.11907559      -0.14770446      -0.05474351       0.00037312       0.00090256       0.00064023       0.00005217      -0.00016376      -0.00011143      -2.98284713
H        5.13002367       4.18253403       4.94039479      -0.08888373      -0.17588635      -0.20676454       0.00182042       0.00040518      -0.00028514       0.00030722      -0.00003873       0.00089203      -3.66162772
H        6.07164994       5.71501563       5.36772276      -0.04029272       0.17750104       0.41761406       0.00054160       0.00036608       0.00044347       0.00053976      -0.00003734      -0.00027705      -3.25028957
H        3.53178699       5.04748663       4.27373889       0.67718722      -0.36397385       0.22538031       0.00015431      -0.00084092       0.00040874      -0.00007064       0.00127608       0.00036346      -2.97535866
H        5.86624265       3.88312299       5.71766612       0.02404150       0.11346394       0.21468954       0.00024368       0.00047197       0.00004413      -0.00011157       0.00000492      -0.00017785      -1.74530234
H        3.88203237       4.12567294       4.78833413       0.34614243      -0.96560430       1.09903149       0.00153413       0.00015215      -0.00018639       0.00031723       0.00002405      -0.00059547      -2.61139743
