20
Lattice="10.0 0.0 0.0 0.0 10.0 0.0 0.0 0.0 10.0" Properties=species:S:1:pos:R:3:forces:R:3:stresses:R:6:energies:R:1 energy=-54.901767734100645 stress="-0.0008309342944523058 0.003884954474976872 0.0008562346090237644 0.003884954474976872 0.005059117474539716 -0.0003549362304176079 0.0008562346090237644 -0.0003549362304176079 0.0025434877740069285" free_energy=-54.901767734100645 pbc="F F F"
H        4.89331103       6.00224126       5.65518334      -0.23544598      -1.09154801      -0.77103655      -0.00282971       0.00081252      -0.00029755      -0.00043150      -0.00028697      -0.00022688      -4.22045037
H        4.42496499       4.06946445       3.93817310       5.82365265      -3.12661000       0.29811532      -0.00144407      -0.00117811       0.00092627      -0.00005224       0.00112167       0.00104486      -2.06967228
H        4.50488764       5.24666363       6.45577559       4.30999008      -1.67008879      -3.07337680       0.00059522      -0.00064349       0.00069694      -0.00087672      -0.00040835       0.00041821      -3.57404587
H        3.54259231       5.62127884       6.80927227      -0.78011559       1.09075544       0.16587771      -0.00014800       0.00014610       0.00032118       0.00002852      -0.00000332       0.00060763      -1.67824762
H        5.45869346       5.81952355       6.57737006      -0.80922341       0.00482501       0.20099541       0.00107221       0.00032895       0.00027669       0.00043093      -0.00032372      -0.00017149      -2.72876342
H        5.50292204       5.02987465       5.78032540      -1.84434299      -0.75096456       0.25874518       0.00027660       0.00089752       0.00161849       0.00075436      -0.00062669      -0.00080048      -4.04004262
H        4.41652823       6.32576462       6.60403541       0.08580805       0.20198562      -0.30324634       0.00136917      -0.00037403       0.00043164       0.00023394       0.00006927       0.00001726      -2.62084392
H        5.29692107       5.48286906       4.76614227      -0.37216386      -2.88405826       1.85794137       0.00125280       0.00179557       0.00117100       0.00017640       0.00063264       0.00076454      -4.16767609
H        4.33211273       5.07208954       4.33994968       0.24494365       0.47926447      -0.87418926       0.00153585       0.00044656      -0.00146370      -0.00087689       0.00026531       0.00017605      -3.53207809
H        3.82897232       5.83885885       5.75507486      -0.74372132      -1.02994606       0.54176472      -0.00059287       0.00055694       0.00071725       0.00036464       0.00033241      -0.00074458      -3.26521544
H        6.20148318       6.07397001       4.49512614      -0.40623942      -0.15505549       0.55929600       0.00036365       0.00018164       0.00045262      -0.00014849      -0.00033478       0.00015160      -1.68522354
H        3.00015823       6.71475909       3.32796527       0.06688255      -0.12696229       0.10105981       0.00003977       0.00011303       0.00007756      -0.00007858       0.00004317      -0.00005280      -0.02487134
H        4.49479043       5.00678727       5.39069338      -1.95862022       3.51364089       5.26994093      -0.00249954      -0.00198236      -0.00413415      -0.00069285      -0.00100255       0.00021908      -4.71015210
H        6.32184541       5.09079934       5.02089096      -2.32555206      -0.19744298       0.33180757       0.00159000       0.00067940       0.00031886       0.00028173      -0.00007188       0.00021781      -2.37610457
H        3.45372064       5.07772661       5.03541335       0.11886252      -0.35450639       0.13969012       0.00039466       0.00029598       0.00032498       0.00003137      -0.00010412      -0.00015145      -2.81541251
H        5.12603606       4.29887861       4.87287811       1.91888290       4.14570681      -2.41215045       0.00140096       0.00254049       0.00178195       0.00005568       0.00200893       0.00098933      -3.11805317
H        5.97592638       6.00433694       5.59210859       1.59118235      -0.39564606      -1.73043211      -0.00056595       0.00004089       0.00095376       0.00066848       0.00042540       0.00023236      -3.10255690
H        3.42823253       4.40954910       4.14483491      -4.75493645       2.74388517      -1.36104902      -0.00189004      -0.00016340      -0.00095137       0.00029416       0.00006857       0.00130942      -2.06305635
H        6.64747572       3.33461386       6.35894306      -0.15621686       0.24644685      -0.13645313       0.00010261       0.00021816       0.00008212      -0.00010529       0.00006630      -0.00012515      -0.04570399
H        4.04018718       4.10992845       4.98735515       0.22637342      -0.64368137       0.93669952      -0.00085426       0.00034675      -0.00076102      -0.00041259      -0.00101507       0.00000965      -3.06359754
