20
Lattice="10.0 0.0 0.0 0.0 10.0 0.0 0.0 0.0 10.0" Properties=species:S:1:pos:R:3:forces:R:3:stresses:R:6:energies:R:1 energy=-66.85344481478378 stress="0.0008394619865473543 -9.788265124336498e-05 0.0014784994139623103 -9.788265124336498e-05 -0.0035296693435574234 0.0016200693536098166 0.0014784994139623103 0.0016200693536098166 -0.0009013869986270737" free_energy=-66.85344481478378 pbc="F F F"
H        4.97981860       5.91533872       5.46438929       0.60161053       0.20116492      -0.07814207      -0.00167599       0.00035630      -0.00137808      -0.00086126       0.00030751       0.00060096      -4.76890997
H        4.55904112       4.69453570       4.16049793      -1.02506140       2.36520922      -2.03592246      -0.00175337       0.00001075       0.00012236       0.00110392      -0.00056384      -0.00101736      -3.22251303
H        4.57893879       5.26696466       6.31203772      -0.01614903      -1.06422554      -0.13817208      -0.00038177      -0.00080482       0.00029917      -0.00056982       0.00054754       0.00083153      -3.87167525
H        3.67217651       5.75475944       6.70481673      -0.34838542       0.25316862       0.15542758       0.00032510       0.00026216       0.00034241       0.00033544       0.00008657       0.00044225      -1.81337511
H        5.56772641       5.80265812       6.38393398       0.11145816       0.18553438       0.16165311       0.00089122       0.00005977       0.00038657       0.00022312      -0.00046870      -0.00002016      -2.76889288
H        5.43463921       4.91957179       5.73438031      -1.12099350      -1.05764737      -0.37667580      -0.00101407      -0.00124780      -0.00079790      -0.00041703       0.00109352      -0.00020217      -4.76703305
H        4.58409207       6.36286948       6.39736767      -0.52427308       0.26316755      -0.08594848       0.00085457      -0.00013478       0.00040442       0.00026850       0.00008166       0.00006703      -2.70922795
H        5.31494287       5.25674622       4.67996664       0.47677157       1.26689851      -0.65897764      -0.00185367      -0.00175486      -0.00138014      -0.00101178      -0.00023078      -0.00046748      -4.73622914
H        4.31583769       5.76904025       4.56987990      -0.50693118      -0.28237307       0.24765428       0.00169075       0.00080416       0.00095934       0.00078758      -0.00051752      -0.00028496      -3.91915013
H        3.91685095       5.85983627       5.63835854      -0.02650882       1.11845865       0.03199204      -0.00205946      -0.00043356      -0.00070856       0.00053126      -0.00041584      -0.00029979      -4.25635810
H        6.29819646       5.53539237       4.27744320       0.40214456       0.04921724       0.14018207       0.00008857       0.00021943       0.00040475      -0.00005633      -0.00014754       0.00000729      -1.73762924
H        3.21130789       5.94300281       4.81636487      -0.14748952       0.42168818      -0.01451749       0.00073575       0.00002158      -0.00060157      -0.00081326      -0.00033700      -0.00022980      -2.22877599
H        4.42472605       4.95153408       5.27006350       0.90899555       0.09419764      -0.20920476      -0.00055045      -0.00204816      -0.00031049       0.00019719       0.00069625       0.00000422      -5.58858700
H        6.19081682       4.66165682       4.97296087      -0.10893811      -0.28762877      -0.10513034       0.00063153       0.00042754      -0.00014459       0.00043463       0.00008263       0.00037730      -3.19247432
H        3.33514513       4.95752079       5.38994523       0.47745903      -0.15621591      -0.29920749       0.00062714       0.00104238       0.00108452       0.00018274      -0.00014110      -0.00019132      -3.01622128
H        5.14278194       4.19091695       4.93887985       0.16986184      -1.04367007       0.69800857       0.00182931       0.00011282      -0.00046706       0.00045822      -0.00020117       0.00082692      -3.66299481
H        6.07271151       5.72632740       5.35929703      -0.02331825       0.05377023       0.15113531       0.00054458       0.00036322       0.00060376       0.00048222      -0.00008421      -0.00019349      -3.25769093
H        3.52225059       5.03611146       4.29964244       1.11838058      -1.09484344       0.12448546       0.00022385      -0.00125424       0.00047691      -0.00022716       0.00133926       0.00057931      -2.98393519
H        5.87397189       3.90467682       5.73281900      -0.10901827      -0.00171477      -0.01553945       0.00031467       0.00038238       0.00014107      -0.00014789       0.00009230      -0.00016510      -1.75084553
H        3.89578911       4.12051758       4.80446619      -0.30961522      -1.28415619       2.30689964       0.00137120       0.00008605      -0.00033829       0.00071977       0.00025897      -0.00076305      -2.60092591
