20
Lattice="10.0 0.0 0.0 0.0 10.0 0.0 0.0 0.0 10.0" Properties=species:S:1:pos:R:3:forces:R:3:stresses:R:6:energies:R:1 energy=-21.406975418141606 stress="0.0017331423545948223 0.0011472487608598161 0.0005503829667622222 0.0011472487608598161 0.005342096814099549 -0.00021581817256987741 0.0005503829667622222 -0.00021581817256987741 0.00796371042174844" free_energy=-21.406975418141606 pbc="F F F"
H        5.18168996       5.91490325       6.87591148       7.61033820       0.97911455       0.17932841      -0.00301454      -0.00008451      -0.00005223      -0.00018306       0.00058801      -0.00003396      -1.98876637
H        3.98947156       3.51961209       4.18124170      -2.07976890       0.40155239       1.26072089       0.00144871       0.00094848       0.00063800      -0.00045983      -0.00025228      -0.00024235      -1.13645773
H        4.13144233       5.90435686       6.94758079      -4.16088887      -2.92878345       0.11904504      -0.00508284      -0.00068058       0.00034458       0.00027111      -0.00026523       0.00029031      -2.39425104
H        3.33866970       5.22912841       7.37415403       0.45344421       0.93090328      -0.76367521       0.00039447       0.00055706       0.00030727      -0.00024495      -0.00019254       0.00010937      -1.11616013
H        6.30263048       5.78493048       7.10627557      -1.75238979      -0.17232421      -0.71082793       0.00101670       0.00012327       0.00022145       0.00010811       0.00031704       0.00001330      -1.02741525
H        5.76227903       5.13384616       6.35345136      -1.45380704      -0.02290127      -0.69923876       0.00132361      -0.00008266       0.00013784      -0.00013949       0.00047998      -0.00003511      -1.48777899
H        3.87185933       6.97275887       6.98493772      -1.03157655      -0.45082204      -0.34845567       0.00076303       0.00023574       0.00009367       0.00014979       0.00006340       0.00042288      -1.12261174
H        5.59997986       5.58938862       3.26427351       0.30961506      -0.06010497       0.42370739       0.00032690       0.00034721       0.00014394      -0.00006413       0.00001693       0.00028339      -1.03418936
H        3.05069674       4.86058502       4.05766765       0.61622249      -0.02336274      -0.04064053       0.00030697       0.00018917       0.00005667      -0.00000478       0.00005060      -0.00032732      -0.62285877
H        3.08867403       6.14244523       6.74845830      -0.97447401       1.12138798       0.06884061      -0.00056934       0.00071079       0.00015350       0.00009019      -0.00016693       0.00059372      -1.51419129
H        7.20885728       6.87320712       3.06056888      -0.69036580      -0.27767074       1.86167289       0.00021876       0.00013295       0.00118997      -0.00004917      -0.00031688       0.00014320      -0.75416244
H        2.89227356       7.14076561       3.11814546       0.00270945      -0.03899705       0.01606829       0.00000021       0.00004446       0.00000755      -0.00001832       0.00000127      -0.00000309      -0.00600267
H        4.62494138       5.37058942       6.06101131       1.30115787       0.40479216       1.97149376       0.00185221       0.00047247       0.00091460       0.00037406      -0.00003372      -0.00041654      -1.59776861
H        6.50863569       6.17079335       3.59964570       0.35592926       0.90004610       0.93441352       0.00041730       0.00063154       0.00055342       0.00038461       0.00021846       0.00047704      -1.50150078
H        3.55901213       3.00728230       6.12493873       0.06210247       0.10137848      -0.50299891       0.00003990       0.00010964       0.00039735      -0.00004716      -0.00002609      -0.00000819      -0.55016358
H        5.27013850       4.67747345       3.84754657      -0.16089179       0.27816746      -0.08946183       0.00045493       0.00050436       0.00018731      -0.00016621      -0.00013795       0.00036971      -0.62310104
H        6.91424994       6.89415305       4.42015881      -0.30016720      -1.15845105      -2.90464775       0.00022451       0.00044289       0.00168673       0.00046985       0.00002089       0.00026516      -0.72879415
H        2.85305741       3.79478992       4.31285523       2.29168414      -1.49316414       0.39144644       0.00132377       0.00005709       0.00024282      -0.00012753       0.00011247      -0.00054767      -1.09530147
H        6.89467224       2.86575638       6.40996287      -0.01578175       0.03160953      -0.00078758       0.00000894       0.00003585       0.00000002      -0.00000089       0.00000045      -0.00001790      -0.00475599
H        3.84853046       2.78321214       5.05872524      -0.38309146       1.47762973      -1.16600306       0.00027894       0.00064690       0.00073925      -0.00055801       0.00007250      -0.00018870      -1.10074401
