20
Lattice="10.0 0.0 0.0 0.0 10.0 0.0 0.0 0.0 10.0" Properties=species:S:1:pos:R:3:forces:R:3:stresses:R:6:energies:R:1 energy=-56.08730063981471 stress="0.0015806860494261118 0.002450779251465014 0.0033073304339973266 0.002450779251465014 0.00736540637430255 -0.002490306967333219 0.0033073304339973266 -0.002490306967333219 -0.0009519755615693242" free_energy=-56.08730063981471 pbc="F F F"
H        4.85247076       6.03636167       5.61919840       1.00723406      -0.81466598      -0.00250347      -0.00122836       0.00038887      -0.00162239      -0.00132453       0.00044969       0.00025596      -4.23442879
H        4.62700980       4.02140658       4.03017458       0.97951321      -1.43931155       0.54906113       0.00000117      -0.00057829       0.00067688       0.00017668       0.00004191       0.00044216      -2.20035859
H        4.51996527       5.26531753       6.43435561      -2.14943599       2.68346671       1.64425986       0.00026485       0.00071534      -0.00088147      -0.00143146       0.00011232      -0.00051221      -3.57201238
H        3.52494721       5.70260514       6.71311557      -0.60309288      -1.44032315       0.44695483       0.00013161      -0.00017902       0.00005093       0.00041731      -0.00017463      -0.00048440      -1.72578589
H        5.40240206       5.90759787       6.56876483       0.67526163       0.48197766       0.17552221       0.00016793       0.00000016       0.00030004       0.00034818      -0.00015218      -0.00038036      -2.74136028
H        5.42588708       5.07069369       5.82154488       2.95944937      -0.16124018      -0.02202840      -0.00206600       0.00089717       0.00071510      -0.00000745      -0.00019429      -0.00062234      -4.23961295
H        4.37254137       6.37843594       6.53069233      -0.10884968      -0.25197797      -0.09350785       0.00007668       0.00043985      -0.00002469       0.00051758       0.00097174      -0.00024679      -2.59634416
H        5.27676660       5.51655571       4.77084411      -0.93817151      -1.54127323       0.31604785       0.00155707       0.00013449       0.00112517      -0.00032020       0.00080928       0.00157191      -4.18770826
H        4.31888818       5.01948479       4.33994722       0.88038308       0.23530293      -0.16949589       0.00207802       0.00088122      -0.00095906      -0.00079436       0.00055002       0.00051881      -3.51337203
H        3.77506174       5.84082728       5.64699843      -0.37155974       0.02032054       1.06407945       0.00012857       0.00063313       0.00146297       0.00054045       0.00142003       0.00037662      -3.12678714
H        6.25600842       6.01792888       4.52890277      -0.92158584      -0.62112973       0.27402502       0.00066056       0.00035827       0.00020060      -0.00020002      -0.00034717       0.00032660      -1.68919728
H        3.07385710       6.56862640       3.44462472       0.12049408      -0.18504074       0.17116685       0.00007429       0.00015091       0.00013483      -0.00011317       0.00007939      -0.00008237      -0.04118103
H        4.44942092       5.03217461       5.39754064       0.63358389      -0.24815874      -0.78213748      -0.00455544      -0.00240882      -0.00574853      -0.00128999      -0.00198775       0.00086441      -4.62171133
H        6.22983537       5.02923402       5.06089049      -1.86564505      -0.36899801       0.45095247       0.00133446       0.00123904       0.00032048       0.00046479       0.00006806       0.00045116      -2.68256642
H        3.43871630       4.90727184       5.04088742      -0.50369187       0.46333609       0.26784577      -0.00017382       0.00126778       0.00057746       0.00041632      -0.00043493      -0.00030173      -2.73424538
H        5.20815970       4.41831937       4.90480949       2.28587570       2.07190893      -0.37592864       0.00150153       0.00075084       0.00095561       0.00014868       0.00122706       0.00030750      -3.65837695
H        5.96364676       6.01296445       5.60412090      -0.85769822      -1.74570223      -1.78585829       0.00074828       0.00078348       0.00066866       0.00086697       0.00044803       0.00024221      -3.14258346
H        3.53792127       4.21135173       4.17858375       0.59121384       0.65450568       0.04740191       0.00035827       0.00029633       0.00006557       0.00012756       0.00034849       0.00045913      -2.14334650
H        6.45203242       3.64729024       6.20153834      -0.52892081       0.81751796      -0.51082140       0.00031559       0.00059370       0.00028348      -0.00030935       0.00019869      -0.00033008      -0.17018723
H        4.18622325       4.02552997       5.06997642      -1.28435728       1.38948500      -1.66503592       0.00020544       0.00100096       0.00074637      -0.00072432      -0.00012642      -0.00040541      -3.06613459
