20
Lattice="10.0 0.0 0.0 0.0 10.0 0.0 0.0 0.0 10.0" Properties=species:S:1:pos:R:3:forces:R:3:stresses:R:6:energies:R:1 energy=-69.32703980560598 stress="0.001614546845227699 -0.0020306048793363816 0.00010245376403309046 -0.0020306048793363816 0.003157946847324333 -0.0003431070691384247 0.00010245376403309046 -0.0003431070691384247 0.0015147277939143897" free_energy=-69.32703980560598 pbc="F F F"
H        5.01016436       5.95017742       5.39871472       0.19623198       0.30675566       0.09249478      -0.00114083       0.00024196      -0.00033355      -0.00087958      -0.00081934      -0.00002452      -4.74025834
H        4.58359824       4.74433356       4.10128934      -1.81542238       1.17644901      -0.22071778       0.00133474       0.00078040      -0.00003862       0.00025167      -0.00029340      -0.00074340      -3.19347543
H        4.47840966       5.23468569       6.20728136      -0.41155322       1.78669803      -0.38283077       0.00101441       0.00019581       0.00031987      -0.00143035       0.00030771       0.00024446      -4.17610749
H        3.47456551       5.71135487       6.35420898       0.39020614      -0.17662947      -0.02884725       0.00111723       0.00027037       0.00022780       0.00045735       0.00022334       0.00010935      -2.71196813
H        5.44339309       5.80113246       6.39006833      -0.04681547       0.03189971      -0.09116460       0.00146782       0.00011385       0.00037651       0.00028826      -0.00055501       0.00003285      -2.74510170
H        5.41618592       4.92894787       5.71520764      -0.52252359      -0.49357796      -0.48602792      -0.00171570      -0.00077594       0.00012310      -0.00064498       0.00030748      -0.00043464      -4.75774963
H        4.43829411       6.32766434       6.27907679      -0.05577630      -0.00186996      -0.06249912       0.00120621       0.00000222       0.00034898       0.00035427      -0.00007457       0.00005013      -2.77857804
H        5.40411417       5.28408631       4.61248893       1.88548804      -0.97619626       1.51826858      -0.00213040       0.00012517       0.00079654      -0.00018282       0.00050690       0.00029243      -4.71821044
H        4.47039529       5.83698781       4.41090089      -0.54290982      -0.01322264       0.02482960       0.00043905       0.00052631       0.00071163       0.00029409       0.00004714       0.00025116      -3.38190486
H        3.91862403       5.93033261       5.37918406       0.48304461      -2.21757369      -0.26919614      -0.00146040       0.00134774      -0.00017967      -0.00059245       0.00081513      -0.00044121      -4.58255689
H        6.44190274       5.55587845       4.36633929       0.35797600       0.20244481       0.06501147       0.00015459       0.00012591       0.00027726      -0.00003232      -0.00021287      -0.00002224      -1.72565935
H        2.86616797       5.61869932       5.38800318      -0.23418445       0.06894147      -0.00263956       0.00027663      -0.00019328       0.00079437       0.00037661      -0.00005744      -0.00016495      -2.21765336
H        4.49988994       5.02740075       5.15034804       0.17751757       0.36110302       0.30782881      -0.00522475      -0.00449180      -0.00533420      -0.00051777       0.00025696      -0.00117507      -5.64703800
H        6.22606480       4.67011907       5.01444348      -0.63453210      -0.41059319      -0.13191261       0.00090572       0.00043215      -0.00023069       0.00051183       0.00021038       0.00032360      -3.18523632
H        3.58023774       4.82922922       5.67055371      -0.13582517      -0.05304968      -0.11881249      -0.00070903       0.00130420       0.00058497       0.00030735       0.00021304       0.00049316      -3.69399965
H        5.16887452       4.20087651       4.89967957      -0.38132063       1.77115537      -1.22285883       0.00221489       0.00113784       0.00018571      -0.00004106       0.00001934       0.00087248      -3.72952685
H        6.09232093       5.72859859       5.41552594      -0.30092768      -0.15459875      -0.16118766       0.00052357       0.00029832       0.00114817       0.00072170       0.00007792      -0.00012016      -3.22157424
H        3.56608022       5.19484802       4.59993432       1.65037003      -0.90588144       0.32696573       0.00146820       0.00099194       0.00118117       0.00044568      -0.00066002      -0.00047911      -3.65467970
H        5.84068420       3.90461434       5.73198081       0.02396422       0.04465518       0.34417595       0.00027389       0.00045059      -0.00000973      -0.00009856      -0.00001174      -0.00017227      -1.75473993
H        3.97179415       4.15001053       4.82228156      -0.08300778      -0.34690921       0.49911981       0.00159870       0.00027418       0.00056509       0.00006797      -0.00019850      -0.00092266      -2.71102146
