20
Lattice="10.0 0.0 0.0 0.0 10.0 0.0 0.0 0.0 10.0" Properties=species:S:1:pos:R:3:forces:R:3:stresses:R:6:energies:R:1 energy=-44.72882573097092 stress="0.007075508229586931 0.00013496857524417942 -0.006402529684258601 0.00013496857524417942 -0.004281341733365676 -0.0008448256891888279 -0.006402529684258601 -0.0008448256891888279 0.0005076060557681386" free_energy=-44.72882573097092 pbc="F F F"
H        4.98903117       5.95078387       5.80494428      -4.64537861      -0.57221337      -2.52961729       0.00234840       0.00024353      -0.00043316      -0.00025619      -0.00204291       0.00036999      -2.68812158
H        4.33373824       4.12250340       3.98084657       1.62464299      -0.69134604       0.28733722      -0.00006171      -0.00016555       0.00059406      -0.00002442       0.00010901       0.00057216      -2.23227418
H        4.47372622       5.18652141       6.61765528       0.70203928      -0.42600196       0.63446472      -0.00235651      -0.00004541      -0.00009417      -0.00033281      -0.00005568       0.00106271      -3.48188397
H        3.49743248       5.40556916       7.08384440      -5.61459132      -6.28063738       1.41173895      -0.00167486      -0.00258797       0.00023097       0.00063468       0.00047179      -0.00189647      -1.53505701
H        5.23835063       5.95683543       6.84434375       0.73540666      -0.93619160       3.69828714       0.00060616       0.00055601      -0.00187641       0.00054485      -0.00057775      -0.00021774      -2.10760442
H        5.46414540       5.01686764       6.20072916       1.65794425       0.67044951      -1.42310651      -0.00045810       0.00086740       0.00119842       0.00054548       0.00045383       0.00001800      -2.31567882
H        4.13774914       6.21803575       6.90335491       7.48365383       6.57845257      -1.57422799      -0.00096145      -0.00256895       0.00015844       0.00060901      -0.00046518      -0.00256926      -2.16734849
H        5.39241352       5.25042780       4.16800135      -2.01139795       1.15531772       0.15665582       0.00200812       0.00089073       0.00096975       0.00000956      -0.00102361       0.00122116      -2.34503488
H        4.27540157       5.10207522       4.47700955       1.22217653       0.73210241       0.10831593       0.00167889       0.00011354       0.00014845      -0.00022746      -0.00007364       0.00049691      -3.64795894
H        3.72303362       5.70410089       6.02806372       2.83869861       1.13605809      -2.34441546       0.00158845      -0.00035578      -0.00143186      -0.00016582      -0.00191224      -0.00043041      -2.91756250
H        6.24498503       5.98972857       3.78457297      -1.15519034      -1.48908801       2.88325782       0.00087209       0.00088802       0.00125120      -0.00029385      -0.00011705       0.00070676      -1.46765536
H        2.95321599       6.83639717       3.25012454       0.02905303      -0.06931879       0.04799078       0.00001539       0.00006878       0.00003460      -0.00004562       0.00001895      -0.00002663      -0.01164309
H        4.56361294       4.97881843       5.53565933      -2.39144462       3.11207357       1.71178268       0.00141431      -0.00138113      -0.00034491      -0.00046975      -0.00076829      -0.00142070      -4.18814924
H        6.38038212       5.27585460       4.66497980      -0.34403502       1.18257617       0.54507035       0.00054906       0.00112055       0.00061218      -0.00019898      -0.00052526       0.00039824      -1.74355037
H        3.43562849       5.06189456       5.20788474       0.23502611       0.95027991       0.34054566       0.00106265      -0.00174816      -0.00100176      -0.00116677       0.00020834       0.00022978      -2.68352994
H        5.08715520       4.37247023       4.77440299       0.48850033       0.41565627       0.36357055       0.00093201       0.00032354       0.00036655       0.00030160       0.00038451       0.00016588      -2.89511944
H        6.58064940       6.39544580       4.81780486      -1.23639910      -2.07449518      -1.43750994       0.00051543       0.00097862       0.00088925       0.00037104       0.00017766       0.00048673      -1.09705971
H        3.33325576       4.47894306       4.28172910      -0.67648973       0.77291740      -1.51761716       0.00005282      -0.00009531      -0.00080933      -0.00012669       0.00007665       0.00068792      -2.09983545
H        6.75756805       3.16434529       6.40875854      -0.07204775       0.09674967      -0.03959423       0.00005248       0.00008735       0.00002674      -0.00003272       0.00002473      -0.00006132      -0.01694312
H        4.03028661       4.16235948       5.07280106       1.12983281      -4.26334096      -1.32292902      -0.00110812      -0.00147116       0.00001861      -0.00051997      -0.00076641       0.00034124      -3.08681521
