20
Lattice="10.0 0.0 0.0 0.0 10.0 0.0 0.0 0.0 10.0" Properties=species:S:1:pos:R:3:forces:R:3:stresses:R:6:energies:R:1 energy=-69.60282897846729 stress="0.00028576735008172086 0.00018664034221321622 0.00011231089766904038 0.00018664034221321622 0.00011469573958828575 -8.647290677680546e-06 0.00011231089766904038 -8.647290677680546e-06 -0.00011196570954974942" free_energy=-69.60282897846729 pbc="F F F"
H        4.85520349       5.98062114       5.49950146      -0.01906807      -0.00469768       0.00213460      -0.00074302       0.00059936      -0.00094199      -0.00079317      -0.00077326      -0.00030017      -4.75590651
H        4.62874357       4.92268822       4.03985091       0.00097009      -0.00701332      -0.01348265       0.00143455       0.00041395       0.00003685       0.00010452       0.00006134       0.00027134      -3.25909286
H        4.48269422       5.10007754       6.19011766      -0.02332369       0.08717284       0.04552332       0.00020315      -0.00014631      -0.00033630      -0.00128185       0.00053382       0.00040076      -4.25045514
H        3.40591118       5.28499467       6.38761674      -0.02853774       0.01458629       0.00004123       0.00079878       0.00051979       0.00035322       0.00066607       0.00029133       0.00043358      -2.67967371
H        5.31342235       5.79732611       6.46928046       0.00369031      -0.01705599       0.00647453       0.00144503       0.00021304       0.00036157       0.00035689      -0.00066455       0.00004540      -2.74397311
H        5.46453579       5.01419898       5.69068928      -0.10305067      -0.04936036      -0.01272115      -0.00200534      -0.00040293       0.00047731      -0.00027541       0.00003711      -0.00069211      -4.70893499
H        4.20595475       6.13333549       6.39556495       0.00893443       0.00943199       0.01482340       0.00158988      -0.00009581       0.00047033       0.00019340      -0.00007259       0.00046336      -2.73360538
H        5.38584908       5.52490835       4.64514490      -0.06552610       0.02093950       0.01972391      -0.00086968      -0.00017923       0.00108884       0.00004062       0.00077777      -0.00000203      -4.73738172
H        4.33599230       5.89258060       4.50837956       0.01619273       0.02902029      -0.01414967       0.00080013       0.00033684       0.00031480      -0.00006533       0.00021327       0.00024672      -3.39334769
H        3.79643187       5.69516078       5.45707571       0.01093632      -0.07545630       0.02611544      -0.00152318       0.00033770      -0.00093340      -0.00016360       0.00107721      -0.00064053      -4.64795799
H        6.36724970       6.01188827       4.48172877      -0.04365759      -0.04372156      -0.01739751       0.00034369       0.00023636       0.00013574      -0.00011865      -0.00019664       0.00013886      -1.72297238
H        2.83515605       5.16898187       5.39558724       0.01983501      -0.00282198       0.01201796       0.00041865      -0.00027794       0.00099985       0.00022995      -0.00016256      -0.00003196      -2.21713473
H        4.56062372       5.00666759       5.12113790       0.09966047       0.06400819      -0.00140666      -0.00609148      -0.00515065      -0.00618953      -0.00083079      -0.00010418      -0.00054531      -5.59457672
H        6.30334981       5.01177752       4.98033615      -0.03956859       0.01414460      -0.01168490       0.00049098       0.00052016      -0.00004004       0.00057594       0.00014126       0.00013112      -3.19221995
H        3.71538371       4.53753170       5.59923007       0.01716554       0.01582185      -0.00454865      -0.00063142       0.00125239       0.00081547       0.00054260      -0.00002526      -0.00005049      -3.72235441
H        5.37076072       4.41238455       4.71661916       0.11972096       0.01638592      -0.00655266       0.00103400       0.00057966       0.00054864       0.00041080       0.00028971       0.00101779      -3.76736112
H        5.96169205       5.96594688       5.51978803      -0.03304136      -0.04443858      -0.03884092       0.00053940       0.00006079       0.00101231       0.00063907      -0.00007644      -0.00019113      -3.23424580
H        3.61805387       5.01622300       4.58054367       0.05133202      -0.02657455       0.00513384       0.00082937       0.00079982       0.00094032       0.00013378      -0.00083940      -0.00000271      -3.71846604
H        6.03359371       4.07915152       5.54422420       0.02308198      -0.04605965       0.01893128       0.00044348       0.00037109       0.00003272      -0.00014542       0.00004199      -0.00010816      -1.77002577
H        4.25115972       4.07353281       4.68509377      -0.01574607       0.04568851      -0.03013473       0.00177880       0.00012662       0.00074133      -0.00022808      -0.00043762      -0.00039769      -2.75314295
