20
Lattice="10.0 0.0 0.0 0.0 10.0 0.0 0.0 0.0 10.0" Properties=species:S:1:pos:R:3:forces:R:3:stresses:R:6:energies:R:1 energy=-69.60350926555479 stress="-1.0435600141763361e-05 -4.332501794572116e-06 5.511533824056333e-07 -4.332501794572116e-06 -6.285035703244022e-06 -3.021443909269004e-06 5.511533824056333e-07 -3.021443909269004e-06 2.60526718396825e-06" free_energy=-69.60350926555479 pbc="F F F"
H        4.85511682       5.98083273       5.50069090       0.00348380      -0.00278729      -0.00001142      -0.00075969       0.00060372      -0.00094527      -0.00078890      -0.00077382      -0.00031877      -4.75517640
H        4.62462998       4.92557158       4.03952754      -0.00422461       0.00156620       0.00825884       0.00142646       0.00041393       0.00005059       0.00010610       0.00005450       0.00025810      -3.26030025
H        4.48558461       5.10073949       6.19138665      -0.00201593       0.00235218       0.00006081       0.00017874      -0.00019041      -0.00032089      -0.00127697       0.00051590       0.00039546      -4.25394105
H        3.40913053       5.28281693       6.39340704      -0.00080712       0.00263184      -0.00159947       0.00080615       0.00054037       0.00035085       0.00067911       0.00028830       0.00043917      -2.67728069
H        5.31792618       5.79613753       6.46792179       0.00647628       0.00339401       0.00661586       0.00144451       0.00020937       0.00037070       0.00035852      -0.00067515       0.00003179      -2.74279082
H        5.46561775       5.01269274       5.68868702      -0.00615823      -0.00621150      -0.00574213      -0.00201690      -0.00034927       0.00049191      -0.00027848       0.00001791      -0.00070409      -4.70485228
H        4.20911816       6.13324290       6.39919214      -0.00112223      -0.00187835       0.00037573       0.00161563      -0.00009753       0.00048135       0.00019053      -0.00006947       0.00047552      -2.73002162
H        5.38238128       5.52700265       4.64317719      -0.00389975       0.01175631      -0.00627685      -0.00094381      -0.00021087       0.00106238       0.00002753       0.00079407      -0.00005935      -4.73509002
H        4.33213379       5.89426424       4.51149740       0.00165548      -0.00263813      -0.00088361       0.00079088       0.00035352       0.00032443      -0.00006879       0.00020619       0.00024383      -3.39382228
H        3.79691433       5.69335801       5.46214762      -0.00196899       0.00409699      -0.00065909      -0.00153609       0.00030897      -0.00094914      -0.00014321       0.00107536      -0.00063767      -4.65065188
H        6.36282105       6.01205748       4.47472647       0.00305401       0.00023585       0.00372464       0.00031488       0.00022261       0.00015590      -0.00011228      -0.00019918       0.00012477      -1.72293452
H        2.83618942       5.16605928       5.40298169      -0.00050502       0.00272982       0.00095817       0.00040858      -0.00028095       0.00099951       0.00022880      -0.00016556      -0.00002741      -2.21726701
H        4.56097593       5.00716227       5.12158956       0.00507057      -0.00491612      -0.00375670      -0.00615706      -0.00515267      -0.00616407      -0.00081550      -0.00011316      -0.00058206      -5.59342765
H        6.30121059       5.01265892       4.97428596       0.00555635       0.00491908       0.00408661       0.00047302       0.00048521      -0.00004378       0.00055524       0.00013312       0.00010919      -3.19515066
H        3.71844830       4.53646602       5.60264068      -0.00550476      -0.00391743       0.00413001      -0.00064170       0.00124292       0.00083526       0.00055593      -0.00003010      -0.00006170      -3.72277574
H        5.37035266       4.41444349       4.71213313      -0.00544676      -0.01075441      -0.00011158       0.00102373       0.00057113       0.00056180       0.00040414       0.00028089       0.00098222      -3.76844339
H        5.96150661       5.96493904       5.51516178      -0.00333927      -0.00226917      -0.00448245       0.00052953       0.00004607       0.00100958       0.00061490      -0.00009406      -0.00017980      -3.23734824
H        3.61640393       5.01640881       4.58474674       0.00265088      -0.00436216       0.00097319       0.00080553       0.00077882       0.00094672       0.00012979      -0.00084226       0.00000939      -3.71925261
H        6.03495017       4.07806870       5.53736679       0.00226729       0.00312963      -0.00073063       0.00045188       0.00039285       0.00003921      -0.00014941       0.00004247      -0.00011512      -1.76969091
H        4.25034955       4.07505476       4.68424245       0.00477802       0.00292266      -0.00492993       0.00177529       0.00010591       0.00074558      -0.00022009      -0.00044541      -0.00038778      -2.75329124
