20
Lattice="10.0 0.0 0.0 0.0 10.0 0.0 0.0 0.0 10.0" Properties=species:S:1:pos:R:3:forces:R:3:stresses:R:6:energies:R:1 energy=-4.962643882606859 stress="-0.0008966585743947613 0.006198778884208251 0.009020123046408457 0.006198778884208251 -0.05036828771394516 0.032330220040270564 0.009020123046408457 0.032330220040270564 -0.026842096626080357" free_energy=-4.962643882606859 pbc="F F F"
H        5.99889187       6.86858394       7.14635176      -0.16717792      -0.53865442      -0.29734694       0.00025404       0.00041032       0.00016436       0.00016054       0.00007339       0.00006285      -0.12469911
H        3.86145625       3.26187057       4.09797365      -1.40139869      -0.58160022       2.02290366       0.00079077       0.00081829       0.00104813      -0.00071787      -0.00013341      -0.00027986      -0.88050419
H        3.68779679       5.93428652       6.95180916     -19.97998029       9.14493201      12.43481910      -0.00454096      -0.00078670      -0.00338473      -0.00279060       0.00475814       0.00386433      -1.13547140
H        3.20951699       4.61117996       7.03733278       0.81756883       2.37931779      -0.53433788       0.00059915       0.00180839       0.00012764      -0.00020438      -0.00017113       0.00035873      -0.44730149
H        7.14358696       5.18230250       7.36190296      -0.27608878       0.12766298      -0.15786033       0.00020383       0.00014395       0.00008047      -0.00001647       0.00011535      -0.00009291      -0.06147528
H        5.57622390       5.43059758       6.23170652      -1.72184591       0.50563101       0.66960310       0.00141027       0.00032731       0.00026164       0.00017194      -0.00008734      -0.00005904      -0.59989429
H        3.73108060       7.05598358       6.80395513      -0.29835057      -1.42735197      -0.03472587       0.00052163       0.00089234       0.00003027       0.00004645      -0.00003451       0.00012755      -0.68349573
H        5.38771432       5.51298911       3.15902089       1.97250113      77.04771340     -51.87411815       0.00041886      -0.02932906      -0.01340930       0.01986280       0.00039153      -0.00038865       1.88436136
H        2.58770976       4.97028307       4.06299883       0.55506118      -2.40229090       0.22656791       0.00013842       0.00155768       0.00004216      -0.00016021       0.00001946      -0.00033107      -0.42306755
H        2.45335146       6.04577079       6.80286456       3.36992373      -0.41232430       0.34503085       0.00206600       0.00067101       0.00005371      -0.00007200       0.00018631      -0.00011383      -0.60240511
H        7.39581134       7.04507022       2.68503344      -0.54088454      -1.13454053       0.75327909       0.00013213       0.00053028       0.00026125      -0.00031521      -0.00015894       0.00025138      -0.49643163
H        2.89967041       7.22064693       3.08428866      -0.00529283      -0.03818046       0.01660514       0.00000083       0.00004296       0.00000813      -0.00001868      -0.00000259       0.00000596      -0.00595026
H        4.41785026       5.51243826       6.41267333      18.32492015      -9.98274137     -12.59635221      -0.00464638      -0.00153154      -0.00327011      -0.00268110       0.00428299       0.00366055      -0.67833023
H        6.98009323       6.12738683       3.25224451      -0.04923987       0.93100689      -0.60571908       0.00055392       0.00065721       0.00028648      -0.00026735      -0.00013439       0.00043913      -0.59289275
H        3.58657471       2.72024077       6.40538845       0.33589625      -0.15292097      -2.16016339       0.00005197       0.00020855       0.00146623       0.00023957      -0.00023953      -0.00006458      -0.35282526
H        5.37294211       4.74754694       3.67596154      -1.51328227     -76.85670810      51.94494988       0.00015619      -0.02930582      -0.01336016       0.01984588       0.00034094      -0.00045127       1.92438264
H        7.06742561       7.32145937       5.02575392      -0.03172283      -0.09575484      -0.09523006       0.00002267       0.00005651       0.00019938       0.00004446      -0.00003557       0.00001883      -0.03580819
H        2.81949280       3.75864030       4.18247196       1.04807049       1.50478843      -0.15412071       0.00083807       0.00171187       0.00012491      -0.00022801       0.00005595      -0.00069440      -0.93171239
H        6.90902989       2.78850229       6.39751952      -0.00260588       0.03868112       0.01063981       0.00000389       0.00004762       0.00000551       0.00001265       0.00000177      -0.00000378      -0.00404906
H        3.80554231       2.51419821       5.13025931      -0.43607140       1.94333443       0.08557607       0.00012805       0.00070055       0.00242193      -0.00058220      -0.00020831      -0.00011112      -0.71507394
