20
Lattice="10.0 0.0 0.0 0.0 10.0 0.0 0.0 0.0 10.0" Properties=species:S:1:pos:R:3:forces:R:3:stresses:R:6:energies:R:1 energy=-32.83062531210398 stress="0.008862331088361125 0.006592626724694471 -0.0025507788411276975 0.006592626724694471 0.017674625190368755 0.006396815360920194 -0.0025507788411276975 0.006396815360920194 0.014271311790597319" free_energy=-32.83062531210398 pbc="F F F"
H        5.07802127       6.06885522       6.06836894      -2.93309815      -2.43027421       3.46957195       0.00195779       0.00201442       0.00243618       0.00048101      -0.00029317       0.00013995      -2.31928309
H        4.33453866       3.82368825       4.07946298       0.85980642       0.84877324      -3.50455133       0.00046991      -0.00032593      -0.00169667       0.00070387       0.00043337      -0.00013817      -2.05142347
H        4.47385109       5.46543848       6.80238192      -8.63267664       5.33268734       3.60795775      -0.00302546       0.00081816       0.00047609       0.00006165       0.00093994       0.00237246      -3.26523224
H        3.39194623       5.25161993       7.20840283       2.50460890       0.71217257      -1.43824271       0.00145433       0.00045355       0.00066666      -0.00002368      -0.00061107       0.00042556      -1.19246522
H        5.38478597       5.95352240       7.33608864      -3.43397088      -1.32002224      -5.12381039       0.00166853       0.00122454       0.00241572       0.00055726       0.00110681      -0.00013601      -1.54911011
H        5.39999142       5.07402777       6.52886044       7.57670194      -1.30226604      -2.42026888      -0.00341289       0.00060053       0.00084427       0.00003738       0.00156418       0.00148825      -1.91109174
H        4.28074998       6.64615747       6.85805678       1.96659277      -6.15263980      -1.93048537       0.00198950       0.00296437       0.00107916       0.00067528      -0.00003808      -0.00059524      -1.66371217
H        5.39060718       5.19675229       3.71711075      -7.45704753      -3.93517867      -1.24632723      -0.00054978       0.00059119       0.00021102      -0.00148583      -0.00225531      -0.00001337      -1.26622868
H        4.04634085       4.88956999       4.04497265       5.25699653       2.64891347       0.68420286       0.00107143      -0.00081150       0.00116110      -0.00005624       0.00069139      -0.00067133      -1.89528303
H        3.58649261       5.87929711       6.29740449       2.30234685      -0.14134496      -1.03099068       0.00147879       0.00148701       0.00062070       0.00113075      -0.00029860       0.00028352      -2.02867849
H        6.52034519       6.25933365       3.30867630      -0.83357149      -1.35217197       3.02187618       0.00045082       0.00078742       0.00142897      -0.00047751      -0.00023226       0.00054788      -1.04723827
H        2.92062632       6.95112077       3.19474997       0.01767188      -0.03236299       0.01334711       0.00000995       0.00003336       0.00000567      -0.00001376       0.00000751      -0.00001822      -0.00545744
H        4.56042877       5.01103281       5.76009046      -1.46070170       1.36610972      -0.35071154       0.00284448       0.00255291       0.00304323       0.00181448      -0.00000346       0.00054836      -2.66041784
H        6.22144742       5.58113985       4.24639195       6.45061783       5.35503826       2.31181802      -0.00145860       0.00125291       0.00005843      -0.00121221      -0.00182385      -0.00001567      -1.41499504
H        3.42061545       4.57328658       5.51935053       4.34301462       0.26139159      -0.20429986       0.00212932       0.00190426       0.00151076       0.00106527      -0.00024117       0.00016818      -1.77197277
H        5.00269121       4.52117404       4.64905141      -2.94114344       2.51454596      -0.19736238       0.00259150       0.00151197       0.00271665      -0.00043526      -0.00065086       0.00050110      -2.16745288
H        6.78387451       6.64779555       4.35840030      -1.46934615      -2.54618274      -1.33249849       0.00042897       0.00124004       0.00063192       0.00034684       0.00020718       0.00070423      -0.94525710
H        3.31680315       4.21355416       4.46439677      -3.86275439       0.55985923      -1.96557992      -0.00077910      -0.00161757      -0.00102845       0.00157895      -0.00054661       0.00007144      -1.99332329
H        6.82719606       3.03444455       6.41305900      -0.03063047       0.03898606      -0.00568276       0.00002341       0.00003800       0.00000675      -0.00000371       0.00000555      -0.00002908      -0.00592054
H        3.95040824       3.58816688       5.05223380       1.77658309      -0.42603382       7.64203767      -0.00048056       0.00095497      -0.00231685       0.00165228      -0.00051227       0.00095881      -1.67608189
