20
Lattice="10.0 0.0 0.0 0.0 10.0 0.0 0.0 0.0 10.0" Properties=species:S:1:pos:R:3:forces:R:3:stresses:R:6:energies:R:1 energy=-19.962061702165645 stress="0.003672199839423937 -0.0007313664674543218 -0.0008562193052311243 -0.0007313664674543218 0.002809284591899679 -0.0008771610174379202 -0.0008562193052311243 -0.0008771610174379202 0.0032137548687165246" free_energy=-19.962061702165645 pbc="F F F"
H        5.25919974       5.97300373       7.03678382      -1.55794115      -0.27474777      -0.77958102       0.00160191       0.00022039       0.00020617       0.00015708      -0.00049969      -0.00048814      -1.96007656
H        3.94875093       3.47089610       4.19465690      -1.77436301      -0.35234552       1.67620848       0.00119560       0.00093959       0.00084665      -0.00065919      -0.00018100      -0.00020626      -1.06540188
H        4.06813952       5.88977610       6.90089342       2.02373841       0.89640756       0.68576790       0.00108512      -0.00056501      -0.00024324      -0.00012287       0.00050360       0.00017041      -2.45964266
H        3.27654308       5.20019269       7.26368676       0.19680590      -0.76798134       0.36731957       0.00013565      -0.00012863      -0.00004294       0.00021992      -0.00015129       0.00003814      -1.11771521
H        6.34406291       5.75397066       7.15980743       0.40286422       0.03153559       0.28820626      -0.00003501      -0.00003061      -0.00010066      -0.00006026      -0.00000557       0.00006037      -1.05243733
H        5.86390431       5.30966210       6.25761034       2.10652624       0.98775886       0.89400561      -0.00145296       0.00041453       0.00042219       0.00037489      -0.00052634      -0.00043812      -1.45804277
H        3.70911779       6.94488807       6.93709379      -0.29786548      -0.73129001      -0.11291478       0.00044626       0.00046933       0.00004641       0.00003800       0.00003028       0.00011922      -1.11498825
H        5.60387181       5.58385947       3.24161262      -0.25874715       0.23621410      -0.33045659      -0.00014955      -0.00020821      -0.00005999       0.00010626       0.00000203      -0.00011934      -1.01568506
H        2.87485321       4.87972123       4.05945400       0.32931676      -0.14625477       0.01682414       0.00021496       0.00022084       0.00004960      -0.00003519       0.00002445      -0.00018811      -0.57350731
H        2.98277424       6.10535745       6.69253073       0.65837763       1.07118180      -0.26440054       0.00045754      -0.00004181      -0.00007098       0.00027017      -0.00000569       0.00020150      -1.52497163
H        7.27633777       6.88983799       2.90822167      -0.54664435      -0.47586512       0.56078028       0.00022750       0.00021194       0.00031857      -0.00008481      -0.00015121       0.00020855      -0.55474002
H        2.89328928       7.16540710       3.10783116      -0.00031058      -0.03850509       0.01603122       0.00000000       0.00004401       0.00000763      -0.00001832      -0.00000015       0.00000035      -0.00590396
H        4.78365011       5.31935752       6.28642901      -3.52531280      -1.28702361      -1.21144886      -0.00174081      -0.00028922      -0.00034367      -0.00042695       0.00002843       0.00005321      -1.60570234
H        6.56195087       6.13651937       3.36810583       0.90195554       0.84678544       0.22992216       0.00001407       0.00031766       0.00033513       0.00003458      -0.00007301       0.00016574      -1.09086046
H        3.57959911       2.91225535       6.16167894       0.00953914       0.12299098      -0.24948398       0.00002576       0.00009375       0.00024536      -0.00005674      -0.00000018      -0.00000261      -0.54032947
H        5.29933093       4.67446988       3.80772625      -0.32794058      -0.50787415       0.37339749       0.00030037       0.00004441       0.00001945       0.00006364      -0.00004481       0.00017338      -0.59028147
H        6.97722112       7.08594340       4.74827173      -0.10853958      -0.34731912      -0.65420986       0.00005293       0.00016995       0.00056938       0.00020212       0.00003942       0.00008004      -0.12233006
H        2.82817936       3.78144431       4.27226817       1.96448704      -0.96624060       0.25163166       0.00109981       0.00018096       0.00018132      -0.00013994       0.00009565      -0.00042828      -1.06733834
H        6.90064816       2.84688577       6.40920588      -0.00939966       0.02232882      -0.00137444       0.00000487       0.00002750       0.00000010      -0.00000169       0.00000071      -0.00001157      -0.00268711
H        3.86033732       2.70652943       5.09364245      -0.18654653       1.68024395      -1.75622466       0.00018819       0.00071792       0.00082728      -0.00073787       0.00005816      -0.00011983      -1.03941982
