20
Lattice="10.0 0.0 0.0 0.0 10.0 0.0 0.0 0.0 10.0" Properties=species:S:1:pos:R:3:forces:R:3:stresses:R:6:energies:R:1 energy=-69.46160513081523 stress="0.001527344394856445 -0.0006660961475366998 -0.0001072209590786494 -0.0006660961475366998 0.002190672008063322 -0.0011419539826563328 -0.0001072209590786494 -0.0011419539826563328 -0.0002613262558099132" free_energy=-69.46160513081523 pbc="F F F"
H        4.95587065       5.97369932       5.44894859      -0.27617462      -0.01403355       0.27226776      -0.00053617       0.00054963      -0.00070775      -0.00084412      -0.00084709      -0.00008185      -4.74235173
H        4.64475673       4.83919315       4.07322674      -0.93681458       0.76864302      -1.23807252       0.00142452       0.00034082      -0.00050972       0.00021351      -0.00004620      -0.00045963      -3.23681870
H        4.45389515       5.17948900       6.19070257      -0.55540615       1.21194244       0.33595274       0.00047537       0.00014400      -0.00020714      -0.00141243       0.00058531       0.00047997      -4.19969147
H        3.41105131       5.53565114       6.33772058      -0.07778197       0.32636898       0.09294080       0.00094580       0.00026362       0.00029034       0.00046179       0.00036397       0.00036298      -2.69369258
H        5.36520929       5.79608892       6.44257403      -0.05500744      -0.03320085      -0.04245135       0.00155549       0.00018528       0.00032063       0.00034615      -0.00059041       0.00002316      -2.73878863
H        5.42237850       4.95625646       5.72292682      -0.64708783      -0.53298644      -0.31786106      -0.00224612      -0.00078991       0.00018590      -0.00050426       0.00036575      -0.00052985      -4.71953805
H        4.31854578       6.25688971       6.32404042       0.08720003      -0.21750232      -0.06051798       0.00150425       0.00001163       0.00041939       0.00029593      -0.00011953       0.00017055      -2.75727290
H        5.43144472       5.39251121       4.64104607       0.48811732      -1.43726709       0.94978125      -0.00116020       0.00048483       0.00090515      -0.00037279       0.00019848       0.00035579      -4.73239074
H        4.45378787       5.88645574       4.44633333      -0.32640270      -0.13693320       0.21135602       0.00062746       0.00043498       0.00064020       0.00006364       0.00003985       0.00016504      -3.39045689
H        3.86455617       5.84862297       5.39575813       0.80281693      -0.92356482      -0.23020558      -0.00130602       0.00080768      -0.00048391      -0.00054796       0.00085443      -0.00044086      -4.61572160
H        6.48482987       5.70095594       4.46615079      -0.34276494      -0.20784799       0.18631879       0.00051429       0.00023441       0.00021865      -0.00012399      -0.00025816       0.00015156      -1.71966047
H        2.84132291       5.45490157       5.33868965       0.05699017      -0.03803792       0.17632086       0.00041528      -0.00021118       0.00095861       0.00030334      -0.00006875      -0.00015991      -2.21652589
H        4.52731370       5.02859480       5.13132846       0.73586816       0.15885381       0.02420091      -0.00532364      -0.00468532      -0.00622500      -0.00082281      -0.00006031      -0.00048792      -5.62971593
H        6.24608061       4.75916386       5.02597831       0.68222049       0.48800878       0.19489465       0.00018399       0.00073004      -0.00009870       0.00048931       0.00016655       0.00006276      -3.19117145
H        3.61291509       4.71332992       5.60625736       0.16824049       0.10025555      -0.43787670      -0.00056817       0.00128380       0.00076066       0.00028974       0.00015936       0.00031398      -3.70838997
H        5.24947941       4.27199677       4.83737847      -0.66290382       1.17838479      -0.65395708       0.00132362       0.00119186       0.00045502       0.00004185       0.00021586       0.00077396      -3.75920134
H        6.05189093       5.80605392       5.49077069       0.16368032       0.08429082      -0.02732649       0.00049819       0.00025872       0.00101168       0.00077819      -0.00009783      -0.00045497      -3.20896978
H        3.60861706       5.14828540       4.55696670       0.61803895      -0.23785493      -0.00640012       0.00117214       0.00054372       0.00107196       0.00027298      -0.00086767      -0.00016942      -3.69515436
H        5.86984940       3.94620980       5.70690903      -0.07610511       0.18304659      -0.25800834       0.00044084       0.00044187       0.00020818      -0.00023240       0.00006758      -0.00012306      -1.75994747
H        4.07796644       4.13562813       4.72380418       0.15327627      -0.72056567       0.82864346       0.00158643      -0.00002982       0.00052452       0.00016239      -0.00016840      -0.00061836      -2.74614520
