20
Lattice="10.0 0.0 0.0 0.0 10.0 0.0 0.0 0.0 10.0" Properties=species:S:1:pos:R:3:forces:R:3:stresses:R:6:energies:R:1 energy=-57.275122362617545 stress="0.0021649610007191075 -0.008781971658353873 -0.005732378322591723 -0.008781971658353873 0.0036914681969155033 -0.0056097042138551784 -0.005732378322591723 -0.0056097042138551784 0.0001713591603111787" free_energy=-57.275122362617545 pbc="F F F"
H        4.82812258       6.05505504       5.62655267       1.37786746       1.03585047       1.91946233      -0.00003815      -0.00018221      -0.00076328      -0.00140119      -0.00016867      -0.00058729      -4.15714788
H        4.73356119       4.08891692       4.07592339      -5.18634099      -1.30479056      -3.68859245       0.00047218       0.00023963      -0.00132378      -0.00045128      -0.00182743      -0.00048850      -2.16548083
H        4.53612387       5.27979293       6.47733405       1.68582147       2.32564886      -0.90565436       0.00115322       0.00086060       0.00019213      -0.00121987      -0.00001286       0.00005185      -3.53891740
H        3.52657564       5.65581666       6.72859058      -0.67596134      -0.47437536       0.38567990      -0.00000513      -0.00001688       0.00010999       0.00034873      -0.00018195      -0.00000399      -1.74064282
H        5.45193051       5.93918204       6.52255583      -1.06109272       0.70333963      -0.27184330       0.00158569       0.00014081       0.00068794       0.00013825      -0.00063718      -0.00008305      -2.70425470
H        5.46153556       5.07212153       5.84099726       1.99574021      -2.44939287      -0.20284685      -0.00010388       0.00116052       0.00077941      -0.00027756      -0.00064340      -0.00179060      -4.52502237
H        4.36041177       6.37899821       6.57698672       0.91619233      -1.59134026      -1.78644298       0.00135436       0.00058839       0.00085403       0.00078952       0.00051691      -0.00029165      -2.53591355
H        5.27241723       5.50883425       4.80158470      -4.47287944      -3.21413598      -6.07725754      -0.00009066      -0.00167431      -0.00092101      -0.00116856      -0.00044228      -0.00018293      -4.19399891
H        4.26999608       5.06244741       4.37312553       1.92553207      -1.67209096       0.54224465       0.00245356       0.00208923      -0.00007911      -0.00042358       0.00053301       0.00006684      -3.51562701
H        3.74426499       5.83544375       5.66183101       1.15730356      -0.06552649       1.07393375       0.00072475       0.00083752       0.00158637       0.00064237       0.00134003       0.00023646      -3.07535313
H        6.28407629       5.83139792       4.42940319      -0.50468833       0.37878758      -1.07206648       0.00058023      -0.00018304      -0.00030350       0.00002708      -0.00018127       0.00028921      -1.68952175
H        3.16650378       6.39886519       3.58800846       0.26228254      -0.38033773       0.33456856       0.00015008       0.00028562       0.00023593      -0.00019722       0.00014417      -0.00016555      -0.08861889
H        4.47145608       5.05859855       5.42820690      -0.80108118      -1.78926433       0.01444330      -0.00386996      -0.00387144      -0.00446076      -0.00105534      -0.00149537      -0.00027500      -4.73174636
H        6.19125313       4.88868799       4.99458395       2.90246229       2.26199542       4.21509867      -0.00124880       0.00092267       0.00131815       0.00024458      -0.00046828      -0.00164185      -2.90605958
H        3.44392689       4.86760814       5.12043925      -1.08371721       0.86605707      -1.43089074      -0.00032552       0.00083102       0.00154450       0.00096660      -0.00037665       0.00033117      -2.75242910
H        5.23084657       4.43171575       4.94078751      -0.64686966      -1.21599558       5.86941545      -0.00236593      -0.00150314      -0.00154125      -0.00119558      -0.00033850      -0.00233125      -3.64027707
H        5.94785609       5.98047085       5.47064249       2.67478689       1.65491241       5.21832620      -0.00026610       0.00033945      -0.00085398      -0.00018623      -0.00160620      -0.00119036      -3.05545216
H        3.58758786       4.17683102       4.18197210       1.57074570       2.02743402       1.22088893       0.00119107       0.00086529       0.00069639       0.00083856      -0.00007648       0.00024822      -2.10027147
H        6.18142657       4.05395635       5.97094193      -2.79508127       4.43338922      -3.23410467       0.00132793       0.00219652       0.00156812      -0.00116403       0.00068062      -0.00113100      -1.06697701
H        4.20188891       4.06523724       5.09704338       0.75897761      -1.53016457      -2.12436233      -0.00051397      -0.00023479       0.00084507      -0.00086497      -0.00049061       0.00015732      -3.09141038
