20
Lattice="10.0 0.0 0.0 0.0 10.0 0.0 0.0 0.0 10.0" Properties=species:S:1:pos:R:3:forces:R:3:stresses:R:6:energies:R:1 energy=-65.98213267172976 stress="-0.00681329544486194 -7.625880219957576e-06 0.004088077145717432 -7.625880219957576e-06 -0.004575050256097866 0.002143233568839911 0.004088077145717432 0.002143233568839911 0.002671204831496816" free_energy=-65.98213267172976 pbc="F F F"
H        4.95825941       5.91758312       5.47226370       0.82389769      -0.04297667       1.36122772       0.00030632      -0.00000589      -0.00128691      -0.00152262       0.00085538       0.00060912      -4.75494802
H        4.60313905       4.69546015       4.14751276       3.90490493      -0.99867084      -2.68479311      -0.00342436      -0.00163990       0.00047491       0.00041196      -0.00005100      -0.00149985      -3.05117641
H        4.61483664       5.32949311       6.38509972      -2.40832272       0.15439066      -0.16573827      -0.00022825      -0.00096366       0.00049693      -0.00112198       0.00081576      -0.00001664      -3.72705863
H        3.67316348       5.82646565       6.70367139      -0.00316802      -0.17400830       0.91350322       0.00041359       0.00021654      -0.00015897       0.00036861      -0.00007764       0.00011396      -1.76299329
H        5.57958725       5.88399725       6.39392202      -0.21990129      -0.16341317      -1.66928311       0.00092189       0.00049718       0.00109052       0.00053009      -0.00019955      -0.00031871      -2.75008029
H        5.44443007       4.94252910       5.79803721      -1.84452723      -0.82128932       0.32465465      -0.00196071      -0.00124916      -0.00047232       0.00027272       0.00153896      -0.00027363      -4.69389031
H        4.57028847       6.42211706       6.36636654      -0.37446162       0.95632185       0.11117952       0.00093649      -0.00042574       0.00014253       0.00027353       0.00038831       0.00003471      -2.68349151
H        5.30996041       5.24051431       4.72755416       0.78020849      -0.76787279       0.73735000      -0.00234239      -0.00213318      -0.00180119      -0.00200418      -0.00092359       0.00000203      -4.68403097
H        4.29025658       5.65673525       4.59652605       1.66204784       0.02991377       1.31256308      -0.00090801      -0.00003048       0.00068242       0.00019119      -0.00027508       0.00143873      -4.18443534
H        3.87410504       5.89799941       5.63202011       2.22739150      -0.91342240      -2.01145933       0.00062540       0.00069678       0.00083210       0.00005258       0.00096931      -0.00121008      -4.14905915
H        6.29405464       5.40336366       4.27432008       0.35135498       0.53387446       1.17010545       0.00004215       0.00020207       0.00106795       0.00024525      -0.00017327       0.00002033      -1.72432663
H        3.26235971       5.96698825       4.65918398      -1.94301239       0.56928560      -0.12128311      -0.00101194       0.00028052       0.00086633       0.00079479       0.00059050       0.00001882      -2.14086936
H        4.42577969       4.93017897       5.38827447       1.20396575       1.38832570      -1.13845373      -0.00166532      -0.00092397       0.00004038       0.00024325      -0.00084294       0.00060111      -5.24878841
H        6.14568249       4.59374770       5.02921451       1.24969885       0.19235401       0.18247684      -0.00005910       0.00062259      -0.00022395       0.00038981       0.00019583       0.00016927      -3.19257529
H        3.36627776       5.02371728       5.20229897      -1.04207345      -1.26005515       0.37548807      -0.00009421      -0.00089745      -0.00007912       0.00017388      -0.00087614       0.00059791      -3.14837316
H        5.10816878       4.17952087       5.01660189      -0.75272536      -0.25909910      -1.32399670       0.00107130       0.00044963       0.00047508      -0.00006426       0.00079721       0.00067858      -3.74057390
H        6.08472453       5.69949884       5.37410467       0.06783017       0.99258932      -1.38948747       0.00097979       0.00036043       0.00121117       0.00105392      -0.00032267      -0.00096070      -3.18163655
H        3.55833380       4.95837810       4.11724793      -3.51026342       3.81828108       0.01329878      -0.00131400       0.00038738       0.00020885       0.00094441       0.00039271       0.00046421      -2.69431180
H        5.79945665       3.90559277       5.85095716       0.09931447      -0.34872943      -0.35102377       0.00036371       0.00013254       0.00031075      -0.00026054       0.00004662      -0.00005273      -1.75689535
H        3.92889715       4.15609690       4.77233355      -0.27215916      -2.88579929       4.35367124       0.00053437      -0.00015126      -0.00120625       0.00117082       0.00123935      -0.00042406      -2.71261831
