20
Lattice="10.0 0.0 0.0 0.0 10.0 0.0 0.0 0.0 10.0" Properties=species:S:1:pos:R:3:forces:R:3:stresses:R:6:energies:R:1 energy=-19.675417453142202 stress="0.0036470134505440575 -0.0009993306662811586 -0.0007667905544125201 -0.0009993306662811586 0.002832042447341927 -0.0017821938402476987 -0.0007667905544125201 -0.0017821938402476987 0.0033960227788173243" free_energy=-19.675417453142202 pbc="F F F"
H        5.26156305       5.97665686       7.07704501      -0.95660400       0.51796991      -0.27013343       0.00161932      -0.00010722       0.00005955      -0.00009928      -0.00069017      -0.00066674      -1.86603217
H        3.94007933       3.46276804       4.20178354      -1.61070394      -0.39091265       1.63012481       0.00110276       0.00091254       0.00083665      -0.00065660      -0.00015677      -0.00019216      -1.06699912
H        4.06238255       5.88465913       6.87469772       0.82003023       0.17526785       1.04175406       0.00177373      -0.00004473      -0.00002091      -0.00022438       0.00033324       0.00045356      -2.43744447
H        3.24101776       5.19876009       7.26296924       1.16129036       0.39719799      -0.22834047       0.00056376       0.00030249       0.00006005      -0.00001462      -0.00030622       0.00037013      -1.10937427
H        6.34895410       5.76132228       7.18233985      -0.05908313      -0.38013066      -0.59619763       0.00008559       0.00005880       0.00030423       0.00012744       0.00021346       0.00016682      -1.05931475
H        5.89947850       5.35035114       6.22735724       3.47193536       1.66907893       1.62197224      -0.00185049       0.00048504       0.00095698       0.00062530      -0.00022968      -0.00050202      -1.38630698
H        3.66552137       6.93093374       6.92146176       0.53000771      -0.08816482       0.17178738       0.00017070       0.00022697       0.00001043      -0.00008671      -0.00005906      -0.00023075      -1.11106385
H        5.60849903       5.58209956       3.23358561       0.17335511       0.17503692      -0.02262786       0.00013507       0.00005196       0.00001049       0.00001692      -0.00000035       0.00009051      -1.01643155
H        2.84710243       4.87941606       4.06033858       0.30304175       0.02734450      -0.01944098       0.00019841       0.00012066       0.00003715      -0.00001998       0.00001591      -0.00017936      -0.56847187
H        2.97180674       6.09798148       6.66341550       0.19801302      -0.09837622      -0.34670792       0.00031496      -0.00031530      -0.00006922       0.00008931      -0.00004159      -0.00017808      -1.52280093
H        7.28515729       6.89419921       2.88691210      -0.33833208      -0.27580118       0.37740555       0.00015330       0.00013465       0.00024352      -0.00004085      -0.00009720       0.00013443      -0.54762534
H        2.89342619       7.16931272       3.10620261      -0.00076743      -0.03793603       0.01580688       0.00000002       0.00004343       0.00000754      -0.00001810      -0.00000037       0.00000088      -0.00579594
H        4.83437389       5.30143688       6.33828049      -5.15024895      -2.25536675      -1.51829038      -0.00236123      -0.00057468      -0.00064465      -0.00067194       0.00003055      -0.00027020      -1.56858830
H        6.57889869       6.13898017       3.34020164       0.12128456       0.26913726       0.19756357       0.00020213       0.00029513       0.00026342       0.00006724      -0.00001035       0.00022774      -1.07681943
H        3.58463684       2.89608145       6.16264707      -0.10008764       0.19881548       0.17455351       0.00001005       0.00008294       0.00001850      -0.00009884       0.00005766       0.00000797      -0.53878665
H        5.29396777       4.66915941       3.80320607      -0.20016315      -0.13379231       0.13479659       0.00030854       0.00020649       0.00008431      -0.00004369      -0.00007806       0.00022249      -0.58709470
H        6.98545867       7.11175048       4.79159365      -0.08750393      -0.28213487      -0.50764873       0.00004390       0.00014468       0.00047708       0.00015843       0.00002619       0.00006723      -0.09980809
H        2.82658011       3.78126842       4.26464382       1.81000679      -1.07507738       0.29265618       0.00100937       0.00008761       0.00017111      -0.00012355       0.00010539      -0.00040371      -1.06743333
H        6.90156991       2.84404248       6.40914617      -0.00833938       0.02085743      -0.00151284       0.00000418       0.00002614       0.00000014      -0.00000190       0.00000076      -0.00001045      -0.00234888
H        3.86128735       2.69879814       5.09968324      -0.07713127       1.56698661      -2.14752051       0.00016295       0.00069445       0.00058964      -0.00076642       0.00011987      -0.00010761      -1.03687683
