20
Lattice="10.0 0.0 0.0 0.0 10.0 0.0 0.0 0.0 10.0" Properties=species:S:1:pos:R:3:forces:R:3:stresses:R:6:energies:R:1 energy=-28.00375271585365 stress="0.004926248087491166 -0.0015148153327795033 -0.0027925588125140006 -0.0015148153327795033 0.007605385019410501 -0.0002858017875377599 -0.0027925588125140006 -0.0002858017875377599 0.008894330114620427" free_energy=-28.00375271585365 pbc="F F F"
H        5.07430750       6.17059103       6.52447827       0.80416392       0.22660514      -0.28897850      -0.00026884      -0.00030298      -0.00014173      -0.00004755      -0.00002281       0.00006291      -2.55124262
H        4.29341573       3.73473734       4.05521417      -2.17195468       2.28093809       1.40087329       0.00152505       0.00115789       0.00050165       0.00007378      -0.00058485      -0.00021319      -1.95145968
H        4.27268016       5.62197843       7.06718046       1.55832853      -0.35915413      -1.99590799       0.00064942       0.00048977       0.00112180       0.00033306      -0.00049419      -0.00022425      -2.62743031
H        3.32795477       5.18187650       7.48894497       0.42317229       0.70062753      -0.88069090       0.00028168       0.00041543       0.00043095      -0.00026404      -0.00020272       0.00014663      -1.09604664
H        5.94691750       5.94197587       7.18535738      -0.87562079      -0.68832502      -0.67303642       0.00066960       0.00024008       0.00030479       0.00026854       0.00019637       0.00019035      -1.13140572
H        5.65151948       5.22210443       6.35391724       0.35713545       0.69764569       1.23352835       0.00016461       0.00034932       0.00042793       0.00031553      -0.00036308      -0.00008546      -1.63918574
H        4.10026940       6.67929757       6.67696486       1.85038580       0.52342225       0.28526099      -0.00091676       0.00029679       0.00022309      -0.00007997      -0.00004695      -0.00083172      -1.64858202
H        5.34032764       5.37732211       3.37007393      -0.21972728      -0.60628619       1.39741367       0.00084105       0.00065306       0.00055096      -0.00035092      -0.00023534       0.00059996      -1.14664495
H        3.91544600       4.81796381       4.10733470       0.11049274      -0.09449092      -0.38915490      -0.00065337       0.00063252       0.00030545      -0.00001758      -0.00004749      -0.00018413      -1.64476831
H        3.29106524       5.95398727       6.65793145      -1.54384105      -2.49219613      -0.14327671      -0.00029344      -0.00039268       0.00029586      -0.00003784      -0.00033523      -0.00087098      -1.63617810
H        6.80393059       6.51209827       3.19697524      -0.09238801      -0.02159683      -0.04859900       0.00013623       0.00006852      -0.00000542       0.00004244       0.00002855       0.00009741      -1.04006056
H        2.90140862       7.04659371       3.15634804       0.02049340      -0.03018092       0.01087143       0.00001739       0.00003175       0.00000485      -0.00001187       0.00000613      -0.00002009      -0.00354170
H        4.61720123       5.31729623       5.97287893      -2.69121469       0.90399324       1.75931918       0.00029400       0.00064715       0.00172119       0.00070940      -0.00081806      -0.00031300      -1.81439654
H        6.19874496       5.89045092       3.90185657      -0.68986927      -0.45105230       0.18465252       0.00043015       0.00034533       0.00011220       0.00011887       0.00013027       0.00036010      -1.56321198
H        3.42310816       3.59837560       5.90311641      -0.03024409       0.71715288      -0.95605744       0.00011950       0.00032618       0.00090398      -0.00024350       0.00006434       0.00008999      -0.73006675
H        4.99654458       4.62318697       4.16618640       1.34862501       0.08981761      -0.50232372      -0.00011400       0.00091448       0.00063719      -0.00029840      -0.00031552       0.00085020      -1.64652439
H        6.84249617       6.72916882       4.29926628      -0.30477231      -0.37653041      -0.23854403       0.00013626       0.00017701       0.00011878       0.00007879       0.00005580       0.00015055      -1.01074359
H        3.19419371       4.06418162       4.47065704       2.79275452      -3.03018220       1.33305913       0.00147534       0.00051374       0.00102883      -0.00026187       0.00003600      -0.00102792      -1.57139212
H        6.86224909       2.94519618       6.41027021      -0.01472777       0.02769717      -0.00068550       0.00000892       0.00003153       0.00000002      -0.00000078       0.00000041      -0.00001677      -0.00402783
H        3.83798104       3.20159507       4.94255835      -0.63119173       1.98209546      -1.48772346       0.00042347       0.00101049       0.00035197      -0.00061188       0.00015581      -0.00027541      -1.54684316
