20
Lattice="10.0 0.0 0.0 0.0 10.0 0.0 0.0 0.0 10.0" Properties=species:S:1:pos:R:3:forces:R:3:stresses:R:6:energies:R:1 energy=-55.94110005248651 stress="0.0006348735614225852 0.003497098122866994 0.0045703944474225384 0.003497098122866994 0.0073860599415382705 -0.0025885234326326893 0.0045703944474225384 -0.0025885234326326893 -0.0005198652879604289" free_energy=-55.94110005248651 pbc="F F F"
H        4.86373626       6.02646251       5.61831541       0.73667242      -0.82541697      -1.06637060      -0.00167522       0.00018878      -0.00183437      -0.00131211       0.00045289       0.00034427      -4.23661739
H        4.59768859       4.00633345       4.01759179       2.14144334      -1.32877138       1.18764474      -0.00030396      -0.00055238       0.00101092       0.00027643       0.00027129       0.00058465      -2.17801355
H        4.51949117       5.26527777       6.43435886      -1.51791845       2.16248711       0.90813818       0.00032977       0.00054880      -0.00060757      -0.00136006       0.00003664      -0.00044931      -3.59478157
H        3.53093875       5.70291838       6.72099677      -0.66992987      -1.22270900       0.65223221       0.00009920      -0.00015540      -0.00004080       0.00040671      -0.00012284      -0.00038364      -1.72215975
H        5.40195281       5.90803153       6.57384261       0.79863617      -0.21225517       0.34978385      -0.00006573       0.00015190       0.00017462       0.00053558      -0.00007917      -0.00029322      -2.73706594
H        5.42851130       5.06408034       5.81708058       1.63141333       0.15369257       0.69499277      -0.00205837       0.00097915       0.00092966       0.00020982       0.00002388      -0.00052660      -4.22079612
H        4.38009446       6.37542392       6.51841750      -0.83842063       0.39278697       0.69366759      -0.00014748       0.00022885      -0.00037174       0.00033772       0.00101741      -0.00006441      -2.61730346
H        5.27700565       5.51019831       4.75859580      -0.69767793      -1.44965046       1.12438240       0.00166498       0.00032466       0.00141405      -0.00032151       0.00072545       0.00153313      -4.15633616
H        4.32642161       5.01349366       4.33468823       0.93485597       0.40222624       0.00442040       0.00189203       0.00070491      -0.00089531      -0.00085069       0.00043089       0.00034862      -3.52885312
H        3.78467627       5.84370077       5.65795683      -0.47440789      -0.11216422       0.66639007       0.00009511       0.00059295       0.00124417       0.00049047       0.00138403       0.00033094      -3.15554224
H        6.24451134       6.05020630       4.54178114      -1.05672792      -1.25019840       0.59838303       0.00072065       0.00065713       0.00027752      -0.00034860      -0.00036930       0.00036305      -1.68815622
H        3.05996331       6.59468399       3.42292397       0.10914172      -0.17143384       0.15710747       0.00006792       0.00014219       0.00012491      -0.00010662       0.00007319      -0.00007626      -0.03696029
H        4.44813899       5.02916224       5.39457958       0.31762080      -0.31671339      -0.59347249      -0.00400844      -0.00231564      -0.00530114      -0.00123659      -0.00178032       0.00095052      -4.64586157
H        6.23507219       5.04626101       5.07366686      -1.30742100      -0.15987739      -0.75222028       0.00116563       0.00134462       0.00010821       0.00025411       0.00034354       0.00053087      -2.63962918
H        3.43270823       4.93095298       5.02725864       0.36499555       0.61484862       0.84076267       0.00023307       0.00128723       0.00047809       0.00029430      -0.00033470      -0.00031875      -2.72197546
H        5.19997416       4.41065003       4.89767397       1.76544348       1.97365068      -0.86190935       0.00177543       0.00096922       0.00128039       0.00033985       0.00142655       0.00055253      -3.62234409
H        5.96652613       6.01121361       5.61991658      -0.19932505      -1.38105663      -2.10278875       0.00036430       0.00057988       0.00050369       0.00082090       0.00063872       0.00031210      -3.11795096
H        3.52980532       4.23328874       4.17551149      -0.47274045       0.18943151      -0.22555821      -0.00019221       0.00001733      -0.00009017      -0.00005991       0.00044012       0.00045618      -2.14020149
H        6.49243306       3.58364369       6.23512146      -0.40623327       0.61623824      -0.38003261       0.00025059       0.00046121       0.00021413      -0.00023844       0.00016021      -0.00026309      -0.12952239
H        4.17211201       4.02399452       5.06723283      -1.15942033       1.92488491      -1.89555309       0.00042759       0.00123066       0.00086087      -0.00071988      -0.00016809      -0.00043448      -3.05102908
