20
Lattice="10.0 0.0 0.0 0.0 10.0 0.0 0.0 0.0 10.0" Properties=species:S:1:pos:R:3:forces:R:3:stresses:R:6:energies:R:1 energy=-47.538145423230425 stress="-0.004643233123645544 -0.0005422648046157138 -0.004400252283143209 -0.0005422648046157138 0.0063273517830665675 -0.00018792755741524456 -0.004400252283143209 -0.00018792755741524456 -0.002894527763626605" free_energy=-47.538145423230425 pbc="F F F"
H        4.87710900       5.98969233       5.79805685      -0.04336938       0.01899388      -0.38443764       0.00137944       0.00012020       0.00158775       0.00029032      -0.00095603      -0.00022799      -3.46408627
H        4.39633227       4.11950083       3.93844035      10.02462303      -2.43804319      -1.63179505      -0.00353504      -0.00014932      -0.00015178       0.00023624       0.00143879       0.00194249      -2.04847985
H        4.48073494       5.22577268       6.54166405      -1.23580951      -0.25043950       1.72916825      -0.00087540      -0.00016345      -0.00115503      -0.00058467       0.00004314      -0.00024389      -3.59028084
H        3.47406375       5.48381779       6.93599804       1.27029642       1.33178969      -1.43219494       0.00066625       0.00054367       0.00090849      -0.00012456      -0.00039086       0.00055876      -1.66951051
H        5.30613450       5.88731132       6.82184394       0.05966884       0.51534666      -0.77085608       0.00059402       0.00018803       0.00062629       0.00034476      -0.00012320      -0.00067253      -2.16081228
H        5.46719811       5.05633296       6.04421325       2.16342710       1.46669762      -0.96218741      -0.00012835       0.00126618       0.00206338       0.00038779      -0.00080519      -0.00018116      -2.64558746
H        4.24412430       6.31612506       6.69347526       2.75444419      -0.69068347       2.06829685       0.00096601       0.00056667      -0.00045611      -0.00047685      -0.00108946      -0.00054955      -2.54103962
H        5.34258554       5.36083287       4.53054295       2.87167603      -1.54534883       6.01482514      -0.00052250       0.00123831       0.00255389       0.00018806      -0.00031625      -0.00018344      -2.90310053
H        4.30541518       5.10724978       4.46796137      -1.69251118      -0.55173623      -6.29796738      -0.00309485       0.00065985      -0.00318748       0.00023061      -0.00045978      -0.00149914      -3.51658435
H        3.76972384       5.78547600       5.88394979       1.03310028      -2.64530734      -2.62961534       0.00081049      -0.00005189      -0.00056905      -0.00063951      -0.00135317      -0.00123963      -3.18641288
H        6.16584873       5.93966360       4.09684649       0.41879808      -0.12568476      -3.44162538      -0.00039800      -0.00021091      -0.00146991      -0.00032496      -0.00020817      -0.00036887      -1.53977115
H        2.97097093       6.78743883       3.27961540       0.04236877      -0.09735558       0.07186535       0.00002107       0.00009247       0.00005639      -0.00006106       0.00002823      -0.00003694      -0.01747518
H        4.53843906       4.99667881       5.48850547      -3.38765577      -1.64645837       0.34607893       0.00077805      -0.00000327      -0.00440809       0.00010923      -0.00204177      -0.00017038      -4.37896214
H        6.44149325       5.13104394       4.82864241      -3.26833448      -0.09799648       0.41186872       0.00203720       0.00031220       0.00067299      -0.00008721      -0.00024493       0.00009861      -1.80708489
H        3.43460795       5.06072647       5.13003945       0.22696022      -1.20523291       0.05948386       0.00081306      -0.00026065       0.00058865       0.00012105       0.00077810      -0.00011069      -2.75160452
H        5.09002401       4.28244901       4.83814526       1.45746644       4.14810433      -1.36335884       0.00049545       0.00194742       0.00136504       0.00006843       0.00098483      -0.00022210      -2.88172321
H        6.40291138       6.21398484       5.11787418      -1.20522277      -0.35864406       3.18743455       0.00112001       0.00043546      -0.00108816      -0.00039970      -0.00048685       0.00059492      -1.33849571
H        3.44876645       4.52708316       4.11143682     -10.12452307       3.80031763       1.33308561      -0.00438056      -0.00086880       0.00018254       0.00011723       0.00042942       0.00144948      -1.97023003
H        6.71590996       3.22802089       6.39420503      -0.08657036       0.12412034      -0.06828915       0.00006108       0.00010776       0.00004420      -0.00005344       0.00003650      -0.00006875      -0.02474884
H        4.01936847       4.13077658       4.96605455      -1.27883288       0.24756059       3.76021994      -0.00145065       0.00055744      -0.00105852       0.00047030       0.00033640       0.00058854      -3.10215516
