20
Lattice="10.0 0.0 0.0 0.0 10.0 0.0 0.0 0.0 10.0" Properties=species:S:1:pos:R:3:forces:R:3:stresses:R:6:energies:R:1 energy=-67.55691504850884 stress="0.0017011756654933927 -0.0027982535270098447 -0.002167983054474393 -0.0027982535270098447 0.005905874006450566 -0.0022937851957426634 -0.002167983054474393 -0.0022937851957426634 7.885363426518793e-06" free_energy=-67.55691504850884 pbc="F F F"
H        5.01610172       5.94821437       5.43100225       0.92326320      -0.27469163       1.37252130      -0.00165976       0.00078980       0.00035861      -0.00085372      -0.00001933       0.00068184      -4.66960254
H        4.68300719       4.70016752       4.10969851      -5.23251987       1.48935494      -0.63039786       0.00105756       0.00117249      -0.00008007       0.00025445      -0.00127823      -0.00061035      -3.14644088
H        4.42842280       5.25310638       6.19455359      -1.10871243       0.89222183      -0.71240253       0.00105686       0.00015522       0.00029669      -0.00104177       0.00070393       0.00090107      -4.20184638
H        3.45523532       5.74401671       6.39960147       0.98988093       0.95959041      -0.19534243       0.00099311       0.00025387       0.00051451       0.00014776       0.00001457       0.00044006      -2.26207620
H        5.41579987       5.76095549       6.43879597       0.09420326      -0.47144201      -0.58152954       0.00122603       0.00011039       0.00058794       0.00032989      -0.00032348       0.00015780      -2.77452904
H        5.36176587       4.90399667       5.74166886      -1.05792473       1.53017969       1.34677256      -0.00179105      -0.00144872      -0.00090331      -0.00120236       0.00056688      -0.00035220      -4.77623095
H        4.45995819       6.34302250       6.34372054      -0.22636876      -0.32328446      -0.25953218       0.00115261       0.00013080       0.00044166       0.00033970      -0.00056629       0.00012296      -2.71312721
H        5.40515776       5.28375304       4.67449443       2.78470119      -0.15544923      -0.25468730      -0.00089100      -0.00005053      -0.00029404      -0.00119825       0.00064593      -0.00038401      -4.69154368
H        4.41370629       5.83639661       4.42662576       1.09607808      -0.74533866       0.43725601       0.00278570       0.00096457       0.00104578       0.00105643       0.00025829      -0.00055983      -3.40987956
H        3.94877361       5.97589067       5.43898358      -1.30136082      -1.76518418      -0.67728513      -0.00338908       0.00078054      -0.00045750       0.00024560      -0.00041874      -0.00065078      -4.36125841
H        6.48015612       5.50299255       4.48430902      -0.26734214      -0.50554425      -0.58535493       0.00058749       0.00027222      -0.00019057      -0.00021686      -0.00014707       0.00019578      -1.72985547
H        3.06253500       5.91384052       4.82115904      -0.56544025      -0.59572680       0.88381662       0.00045263       0.00024336       0.00059816      -0.00117746      -0.00027857      -0.00031226      -1.83970337
H        4.45928528       5.03168325       5.13811499       1.14825092      -0.50040343       3.55820223      -0.00314679      -0.00312999      -0.00458861       0.00047611      -0.00030292      -0.00113290      -5.70024933
H        6.17781519       4.59666745       5.07674376       1.83391497       1.20587246       0.46499370      -0.00046002       0.00094447       0.00014977       0.00012290       0.00012643      -0.00022095      -3.19331195
H        3.45197746       4.98837525       5.57406281       1.62770288       0.53973842      -1.46740850       0.00153972       0.00168044       0.00154107       0.00000201       0.00053159      -0.00044924      -3.42808016
H        5.16705595       4.18644438       4.94593508      -1.52894164      -0.31441125      -1.22422590      -0.00058400       0.00075492      -0.00139125      -0.00012877      -0.00099290      -0.00018066      -3.76199595
H        6.09594115       5.67352530       5.50433540      -1.24960820      -0.50745433       0.40221550       0.00074313       0.00070026       0.00057084       0.00072057       0.00034084      -0.00023466      -3.20758549
H        3.61092100       5.04314922       4.46310460       2.63830559      -1.82046295      -1.11878606       0.00063960       0.00035520       0.00046539       0.00026502      -0.00028974       0.00042216      -3.35639298
H        5.74257015       3.87196708       5.83932291       0.52994988       0.36201660      -0.19231626       0.00036318       0.00053602       0.00020878      -0.00029510      -0.00015857       0.00006877      -1.75568995
H        4.05557566       4.07181277       4.86127838      -1.12803206       1.00041884      -0.56650931       0.00102523       0.00069055       0.00113406      -0.00013992      -0.00058059      -0.00070084      -2.57751554
