20
Lattice="10.0 0.0 0.0 0.0 10.0 0.0 0.0 0.0 10.0" Properties=species:S:1:pos:R:3:forces:R:3:stresses:R:6:energies:R:1 energy=-25.85098181539422 stress="0.016277350988758002 0.0024404197867229148 -0.003912761626833529 0.0024404197867229148 0.004776102345351964 -0.00018551094138608446 -0.003912761626833529 -0.00018551094138608446 0.007997025259929567" free_energy=-25.85098181539422 pbc="F F F"
H        5.15462004       6.11960562       6.60239739      -1.27596399       0.65869295       0.29630299       0.00116675       0.00059628       0.00010084       0.00021972      -0.00027903      -0.00075920      -2.31359845
H        4.28232000       3.74063652       4.10454815      -1.30923978      -0.34133146       2.18142106       0.00215330       0.00074097       0.00095188      -0.00058622      -0.00097538       0.00123423      -1.76393960
H        4.19464435       5.74562277       7.03621768       1.25306690      -3.57202218      -0.14297190       0.00034759      -0.00071292       0.00065994       0.00039671      -0.00076962       0.00034734      -2.54204430
H        3.26656348       5.21448534       7.46785399       1.39966146       1.12311872      -1.06098584       0.00074239       0.00052120       0.00037871      -0.00029458      -0.00040010       0.00039886      -1.07888899
H        6.12095343       5.84127446       7.10438821      -0.44730257       0.18803427       0.07069797       0.00047409      -0.00003596      -0.00001972      -0.00005878       0.00008047      -0.00002131      -1.07774693
H        5.70429969       5.16968975       6.31584943      -1.15849610       0.46160671      -0.07315607       0.00059976       0.00029955       0.00010640       0.00004186      -0.00019362      -0.00033749      -1.57708771
H        4.05663668       6.82549710       6.90152438      -0.01378500      -1.19531378      -1.10882654       0.00173080       0.00037385       0.00018025       0.00047806      -0.00019155       0.00009428      -1.33370059
H        5.34698032       5.49276171       3.33317109       1.60897169       1.80361043      -0.10150298       0.00091290      -0.00007728      -0.00005735       0.00048533       0.00034896       0.00040087      -1.06879244
H        3.78094278       4.72158478       4.09220897       2.77068403       2.05591576      -0.40979083       0.00123463      -0.00070523       0.00018608       0.00001189      -0.00001632       0.00003116      -1.44540572
H        3.18581296       6.04091081       6.70206120       0.95747908       1.23489897       0.00060678       0.00056867       0.00070535       0.00013896       0.00016856      -0.00018293       0.00061918      -1.54501235
H        6.93298061       6.64542834       3.12972070      -0.99984958      -0.69231890       2.62349318       0.00039252       0.00034003       0.00132392      -0.00016380      -0.00031980       0.00035080      -0.98842738
H        2.89543184       7.08122018       3.14255662       0.01851054      -0.02739325       0.00903435       0.00001671       0.00002960       0.00000397      -0.00001033       0.00000466      -0.00001765      -0.00291963
H        4.61551395       5.30445719       6.05349927      -0.78063229       0.80623519       1.59357571       0.00087102       0.00052940       0.00114946       0.00054970      -0.00037692      -0.00024558      -1.71902023
H        6.27536456       5.99454744       3.81982024      -1.40501386      -1.01049687      -1.89533180       0.00081128       0.00028099       0.00036706      -0.00033017      -0.00015457       0.00048698      -1.51460212
H        3.47444242       3.32160726       6.02282875      -0.04744542       0.42386854      -0.21271741       0.00007206       0.00022238       0.00034244      -0.00016526       0.00005013       0.00004336      -0.61017049
H        5.05217353       4.67300037       4.00596438      -4.11205058      -2.59486556       1.44569626       0.00230118       0.00063291      -0.00010786       0.00028115      -0.00011551       0.00071488      -1.37777853
H        6.89689598       6.77611167       4.29361507       0.62044728       0.54249795      -1.30980955      -0.00013410      -0.00025283       0.00096260      -0.00006325      -0.00017056      -0.00019965      -0.97989146
H        3.09464949       3.92257694       4.41787676       2.37732965      -2.45652289       0.84028642       0.00142297       0.00013442       0.00054213      -0.00017364       0.00003441      -0.00082268      -1.45403021
H        6.87472007       2.91409038       6.40982643      -0.01594655       0.03073172      -0.00128040       0.00000933       0.00003466       0.00000006      -0.00000144       0.00000075      -0.00001798      -0.00462955
H        3.68581541       3.08486910       4.95158218       0.55957508       2.56105368      -2.74474138       0.00058348       0.00111873       0.00078725      -0.00097101      -0.00028624       0.00014002      -1.45329514
