20
Lattice="10.0 0.0 0.0 0.0 10.0 0.0 0.0 0.0 10.0" Properties=species:S:1:pos:R:3:forces:R:3:stresses:R:6:energies:R:1 energy=-45.690667192975035 stress="0.0003571170326680466 0.0030018052187470853 -0.004728780161437236 0.0030018052187470853 -0.00598866885677179 0.0004158656226638305 -0.004728780161437236 0.0004158656226638305 9.118680519870608e-05" free_energy=-45.690667192975035 pbc="F F F"
H        4.94594371       5.96114490       5.77973453      -4.19939660       1.60045736      -0.91242131       0.00228096      -0.00068882       0.00043935      -0.00021293      -0.00214908       0.00020187      -2.86284478
H        4.36170511       4.15443986       3.96477752       5.11315186      -3.98014528      -2.10851392      -0.00129474      -0.00143596      -0.00014166      -0.00062043       0.00080021       0.00118300      -2.16953735
H        4.46765828       5.18326298       6.58886659       0.93995739       0.28448545       1.08067062      -0.00218352       0.00043590      -0.00048573      -0.00032641      -0.00005957       0.00066668      -3.48775006
H        3.48701005       5.42145297       7.01924806      -2.33614591      -1.28292360       0.86008219      -0.00070828      -0.00060545       0.00008727       0.00021325       0.00023538      -0.00028071      -1.65273037
H        5.23183231       5.94316902       6.82008703       3.33950044      -1.14996807       2.31863409      -0.00082766       0.00017708      -0.00115158       0.00047489      -0.00041710       0.00007002      -2.13633155
H        5.45713884       5.04323998       6.13701254       2.17645010       0.04755686      -0.90281541      -0.00042604       0.00058433       0.00130232       0.00064178      -0.00007045       0.00011264      -2.41712212
H        4.18482339       6.25553269       6.88205193       0.39839481      -0.15973350      -2.92061016      -0.00085540       0.00027429       0.00139373       0.00087555      -0.00038922      -0.00053157      -2.30114604
H        5.40352242       5.27162627       4.28399342      -3.37476409      -2.18735313       2.90272056       0.00034586       0.00001715       0.00118330       0.00061154       0.00010424      -0.00008020      -2.52095767
H        4.30631300       5.11122336       4.45389494       0.95273908       3.20694608       2.08067951       0.00071383      -0.00098734      -0.00044501      -0.00086865      -0.00014350      -0.00036200      -3.63526930
H        3.74159636       5.72074603       5.97963246       4.36862923       2.61708366      -0.51816448       0.00189133      -0.00009558      -0.00066583       0.00040885      -0.00122265      -0.00017332      -3.05836657
H        6.18338224       5.92997248       3.91970908       2.41210865       1.68711370       0.35302310      -0.00063038      -0.00031223       0.00053859       0.00027272       0.00046710      -0.00062390      -1.52555759
H        2.96026708       6.81484978       3.26217432       0.03400493      -0.08132327       0.05397144       0.00001778       0.00007976       0.00003740      -0.00005064       0.00002122      -0.00003097      -0.01435823
H        4.54647215       4.99559263       5.51339182      -3.21335165      -1.11051583      -1.19884742       0.00106234      -0.00140518      -0.00101958      -0.00020971      -0.00124815      -0.00132060      -4.28753596
H        6.42567122       5.19735196       4.75078204      -1.74524048       1.22037861       0.37352020       0.00121335       0.00116303       0.00068072      -0.00005027      -0.00027437       0.00031050      -1.76765366
H        3.43787277       5.06206866       5.17779556      -0.94448566       3.30647794       0.19047206       0.00078588      -0.00274434      -0.00072705      -0.00131643       0.00005434       0.00094416      -2.66632566
H        5.10286709       4.32838973       4.80320004      -1.56094413       2.32842409       0.28605730       0.00185980       0.00113428       0.00107803       0.00033043       0.00042097      -0.00021031      -2.90429266
H        6.51225225       6.33260931       4.93501192      -1.27075857      -2.26505475      -0.91758510       0.00066358       0.00115280       0.00067839       0.00030053       0.00005119       0.00050796      -1.16800776
H        3.38757864       4.53662439       4.21195739      -5.97625235       1.82270598      -2.78135376      -0.00228260      -0.00068954      -0.00154954       0.00002124      -0.00018479       0.00099400      -2.05153966
H        6.74118281       3.19082908       6.40458113      -0.07630319       0.10556781      -0.05106104       0.00005498       0.00009399       0.00003414      -0.00004114       0.00002942      -0.00006312      -0.01971482
H        4.00667188       4.17585167       5.01960860       4.96270615      -6.01018013       1.81154153      -0.00132395      -0.00213682      -0.00117607      -0.00003830      -0.00075396       0.00168768      -3.04362538
