20
Lattice="10.0 0.0 0.0 0.0 10.0 0.0 0.0 0.0 10.0" Properties=species:S:1:pos:R:3:forces:R:3:stresses:R:6:energies:R:1 energy=-69.41476422343342 stress="0.0021500846121139546 -0.0017624373984955347 -0.0003798737854118094 -0.0017624373984955347 0.0028780667473920214 -0.0010308639288399667 -0.0003798737854118094 -0.0010308639288399667 -0.0011639839534126888" free_energy=-69.41476422343342 pbc="F F F"
H        4.97370112       5.96969764       5.42782259      -0.05250775       0.05081088       0.16033574      -0.00066599       0.00049636      -0.00059038      -0.00099019      -0.00071553      -0.00012534      -4.72409891
H        4.63588484       4.80116423       4.08074757      -1.63714296       1.05432680      -0.90338620       0.00156257       0.00054282      -0.00040062       0.00026037      -0.00026132      -0.00041894      -3.20216203
H        4.45721384       5.19845424       6.19022093      -0.67135433       1.57423729       0.46629472       0.00032904       0.00014320      -0.00020601      -0.00149975       0.00045518       0.00034137      -4.19312604
H        3.43381597       5.60805236       6.34435140      -0.19190518      -0.26665415      -0.05517570       0.00086522       0.00031721       0.00028419       0.00056920       0.00032283       0.00020753      -2.70465117
H        5.38495830       5.79017334       6.42102215       0.06073190       0.00692096       0.17231589       0.00134500       0.00015767       0.00023447       0.00036705      -0.00051682      -0.00004722      -2.76239485
H        5.41206601       4.93326998       5.71914172       0.35977285       0.16513248      -0.00460823      -0.00224094      -0.00053136       0.00001584      -0.00074113       0.00012916      -0.00048246      -4.71783062
H        4.35844170       6.28447578       6.30339061       0.15345510      -0.08913876       0.04753363       0.00126464       0.00002247       0.00034077       0.00030718      -0.00007248       0.00005018      -2.77344241
H        5.42976373       5.36185809       4.63197388       0.39661967      -1.37457430       0.88074717      -0.00117116       0.00046413       0.00093573      -0.00040060       0.00033018       0.00035077      -4.72342220
H        4.45375989       5.86437549       4.42745978       0.14651401       0.13111807       0.00686145       0.00075969       0.00035545       0.00063445       0.00029773       0.00013302       0.00009059      -3.38035155
H        3.88056142       5.87754730       5.38619556       0.64213918      -1.26883679      -0.29410814      -0.00130294       0.00092628      -0.00048718      -0.00057177       0.00088665      -0.00041997      -4.61121113
H        6.48307625       5.66349443       4.45519622      -0.14722976      -0.17773839      -0.06527441       0.00044704       0.00022087       0.00009859      -0.00012712      -0.00020947       0.00012474      -1.72030907
H        2.84270474       5.51639170       5.36273972       0.14584164      -0.00481457       0.02525312       0.00044565      -0.00018584       0.00093173       0.00034600      -0.00008724      -0.00015426      -2.21388975
H        4.51997497       5.03240958       5.13239580      -0.36069626      -0.38275162      -0.36134216      -0.00504347      -0.00494759      -0.00614093      -0.00063460      -0.00009328      -0.00078642      -5.62596548
H        6.23966021       4.72748356       5.02262477       0.32355579       0.30782713       0.19979536       0.00037889       0.00058400      -0.00008915       0.00052751       0.00011874       0.00011374      -3.19930340
H        3.59887492       4.75737365       5.62388635       0.03552614       0.23493323      -0.04582506      -0.00057297       0.00133818       0.00061540       0.00037714       0.00004503       0.00033517      -3.71949277
H        5.22859476       4.24905900       4.85378390      -0.82235675       1.11888057      -0.85409398       0.00154253       0.00112948       0.00005211      -0.00000030      -0.00003907       0.00073575      -3.75699032
H        6.06300450       5.77031847       5.48052310      -0.11247403      -0.11113633       0.03402970       0.00048673       0.00032698       0.00079177       0.00071416       0.00007520      -0.00029665      -3.23519806
H        3.58385654       5.16362090       4.57089335       1.72024873      -0.83246864       0.29291226       0.00167559       0.00084811       0.00113757       0.00035455      -0.00070855      -0.00046506      -3.65888393
H        5.86467674       3.92266657       5.70799475      -0.05193501       0.14826211       0.00407517       0.00036585       0.00046124       0.00010558      -0.00016404       0.00004165      -0.00014392      -1.75490016
H        4.04717113       4.13809144       4.76514682       0.06319704      -0.28433598       0.29365970       0.00167912       0.00020841       0.00057208      -0.00002226      -0.00021373      -0.00077206      -2.73714038
