20
Lattice="10.0 0.0 0.0 0.0 10.0 0.0 0.0 0.0 10.0" Properties=species:S:1:pos:R:3:forces:R:3:stresses:R:6:energies:R:1 energy=-69.4194500742044 stress="0.0020557830683746686 -0.0017034521650206981 -0.0002808079491978493 -0.0017034521650206981 0.0027437343764490944 -0.0007715204530829452 -0.0002808079491978493 -0.0007715204530829452 -0.0010760309865523025" free_energy=-69.4194500742044 pbc="F F F"
H        4.97237630       5.97073575       5.42990719      -0.13298597      -0.10908759       0.16341615      -0.00063855       0.00055919      -0.00051979      -0.00097836      -0.00067893      -0.00009025      -4.72470771
H        4.63536634       4.80178421       4.08221820      -1.60667330       1.25891193      -1.17800418       0.00150395       0.00051179      -0.00051344       0.00032213      -0.00025196      -0.00043504      -3.20506706
H        4.45718461       5.19555309       6.19293808      -0.34658498       1.43837874       0.17094485       0.00042942       0.00014461      -0.00008754      -0.00147492       0.00044323       0.00037497      -4.19027825
H        3.43296980       5.60021751       6.34434967      -0.27815419      -0.04635470       0.10638853       0.00083337       0.00025217       0.00023140       0.00051346       0.00034193       0.00025147      -2.70405089
H        5.38587907       5.78970916       6.42305747      -0.07212997      -0.04174817       0.01505230       0.00140566       0.00018600       0.00030159       0.00036911      -0.00049569      -0.00002657      -2.76112302
H        5.41405186       4.93536625       5.71750298       0.18460279       0.16739643       0.08050197      -0.00218193      -0.00057076       0.00005022      -0.00066815       0.00007159      -0.00050909      -4.72068424
H        4.35675096       6.28064791       6.30656315       0.09023739      -0.08823749       0.01138921       0.00130299       0.00000496       0.00036214       0.00031369      -0.00005335       0.00007345      -2.77204996
H        5.42823151       5.36399234       4.63288249       0.35782626      -1.22921387       0.77098114      -0.00117519       0.00043966       0.00089445      -0.00037727       0.00033220       0.00034167      -4.72609299
H        4.45051971       5.86568288       4.42965007       0.35342025       0.00265256       0.01251513       0.00074522       0.00041510       0.00063842       0.00027371       0.00017712       0.00004865      -3.38159142
H        3.87939448       5.87432829       5.38764026       0.66086742      -1.11680097      -0.12599020      -0.00133140       0.00087653      -0.00052394      -0.00056262       0.00093359      -0.00041911      -4.61125340
H        6.47999505       5.67075648       4.45315429      -0.19389704      -0.23545419      -0.01799543       0.00046326       0.00024737       0.00011430      -0.00014218      -0.00021801       0.00013522      -1.72061620
H        2.84190465       5.51338619       5.36230938       0.11833734      -0.01233038      -0.00675927       0.00043092      -0.00019265       0.00093990       0.00034760      -0.00010117      -0.00015701      -2.21274897
H        4.52034571       5.03130229       5.13361840      -0.18020249      -0.24581166      -0.18392368      -0.00513624      -0.00483524      -0.00609488      -0.00063555      -0.00009527      -0.00076823      -5.62824270
H        6.24047154       4.73091920       5.01802220       0.37440958       0.39597930       0.26100278       0.00035944       0.00061863      -0.00006509       0.00053958       0.00008293       0.00012407      -3.19744217
H        3.59913640       4.75566686       5.62294772       0.06711948      -0.02559756      -0.05177450      -0.00059661       0.00124911       0.00054388       0.00036920       0.00007621       0.00034392      -3.71977378
H        5.23103192       4.25033286       4.85038291      -0.77328236       1.10920859      -0.59437819       0.00153865       0.00114676       0.00008238       0.00004831      -0.00004102       0.00072163      -3.75700728
H        6.06205727       5.77409566       5.47991876      -0.03952655      -0.11636400       0.00989138       0.00046695       0.00033099       0.00081284       0.00073389       0.00006334      -0.00031864      -3.23140612
H        3.58562124       5.16110455       4.57145629       1.50259445      -0.78576729       0.16767751       0.00160553       0.00078086       0.00107640       0.00037813      -0.00073795      -0.00047139      -3.66353081
H        5.86889155       3.92717137       5.70636555      -0.07073048       0.08956639      -0.06580194       0.00037610       0.00042291       0.00013581      -0.00017480       0.00006558      -0.00013535      -1.75557244
H        4.04958161       4.13722491       4.76262592      -0.01524760      -0.40932608       0.45486645       0.00165424       0.00015574       0.00054493       0.00003353      -0.00019518      -0.00078784      -2.73621066
