20
Lattice="10.0 0.0 0.0 0.0 10.0 0.0 0.0 0.0 10.0" Properties=species:S:1:pos:R:3:forces:R:3:stresses:R:6:energies:R:1 energy=-15.550785789327405 stress="-0.012031978671061434 0.002231204573256918 -0.021561343737885093 0.002231204573256918 0.001926871158530084 -0.0032427937708590904 -0.021561343737885093 -0.0032427937708590904 -0.017522466930278327" free_energy=-15.550785789327405 pbc="F F F"
H        5.75812898       6.27042149       7.02264147       0.06624443      -2.54241943      -0.57593737       0.00149412       0.00109959       0.00016557       0.00022795       0.00029709      -0.00007858      -1.22411339
H        3.89720511       3.40406949       4.21763170      -1.13260206      -0.83704506       1.81433581       0.00077193       0.00095184       0.00096717      -0.00080813      -0.00011080      -0.00012974      -1.00444429
H        3.84741798       5.90511632       6.90582663       0.50001348      -0.87077664       0.21673893       0.00018710       0.00029042       0.00002342      -0.00004450      -0.00013523       0.00035281      -2.02956082
H        3.04507071       5.11206443       7.09702731       2.70680951      -4.57442447       1.37752863       0.00036461      -0.00217902      -0.00020030       0.00073301      -0.00040663       0.00116177      -1.00061172
H        6.60820096       5.44000784       7.04935280      28.65966454       4.68793277      29.46284771      -0.00963925       0.00052280      -0.00993621      -0.00111676      -0.01016345      -0.00174030       0.01175902
H        5.91600756       5.36610684       6.37565827     -31.74540249      -3.16889295     -29.39740465      -0.00968887      -0.00004859      -0.00990631      -0.00108430      -0.01038375      -0.00116659      -0.49659515
H        3.54267471       6.98405701       6.85177519      -1.26352354      -1.92118667      -0.09001251       0.00069036       0.00100223       0.00001042       0.00003654       0.00001868       0.00055835      -1.01919201
H        5.69520028       5.63280356       3.17538081      -0.99319829      -1.92562576       1.12001514       0.00017272       0.00096953       0.00035327      -0.00056995      -0.00027604       0.00044759      -0.91909105
H        2.69980982       4.87075495       4.06662869      -0.05428300       2.13860680      -0.27544249       0.00012713      -0.00104172       0.00000666       0.00012602      -0.00000703       0.00001128      -0.53083415
H        2.75914560       6.09146162       6.79727782      -0.95555894       7.17399655      -1.69502177      -0.00003653      -0.00199524      -0.00023894       0.00088638      -0.00026090       0.00144176      -1.39033851
H        7.32991896       6.94994551       2.78170859      -0.58157432      -0.68779389       0.46689021       0.00022611       0.00030868       0.00018571      -0.00014734      -0.00014304       0.00025516      -0.52578269
H        2.89645654       7.19674901       3.09450182      -0.00280211      -0.03314420       0.01385230       0.00000028       0.00003855       0.00000673      -0.00001611      -0.00000136       0.00000326      -0.00488209
H        4.77806692       5.38752392       6.54629328       2.06950845       1.16065219       0.59070932       0.00195891       0.00060772       0.00022163       0.00027647       0.00010818       0.00042291      -1.33998947
H        6.69796344       6.12292672       3.24764257       0.63793325       0.73325399      -0.18790699       0.00010660       0.00033804       0.00019362      -0.00010233      -0.00011953       0.00021794      -1.03136518
H        3.60085108       2.79382282       6.21094752      -0.24547762       0.31222627       1.02653676      -0.00001127       0.00005794      -0.00045592      -0.00015437       0.00012806       0.00001825      -0.52582173
H        5.24059059       4.64807373       3.76621360       0.70060263       1.79641676      -1.06021726       0.00046805       0.00112688       0.00040658      -0.00062254      -0.00033724       0.00062797      -0.47166835
H        7.03014720       7.23720853       4.94702950      -0.05039399      -0.14778188      -0.17594438       0.00002890       0.00009141       0.00026407       0.00005448      -0.00001034       0.00004044      -0.04817938
H        2.82045916       3.79446107       4.20418717       1.49541565      -2.92305164       0.53190927       0.00065775      -0.00102623       0.00011314       0.00002406       0.00009168      -0.00016643      -1.03519422
H        6.90757065       2.81507977       6.40492250      -0.00990870       0.04030222       0.00492380       0.00000409       0.00005218       0.00000166       0.00000647      -0.00000066      -0.00001273      -0.00419860
H        3.82087533       2.60732311       5.14486366       0.19853313       1.58875505      -3.16840047       0.00008530       0.00075986       0.00029557      -0.00094784       0.00015098      -0.00003393      -0.96068201
