20
Lattice="10.0 0.0 0.0 0.0 10.0 0.0 0.0 0.0 10.0" Properties=species:S:1:pos:R:3:forces:R:3:stresses:R:6:energies:R:1 energy=21.471276558084476 stress="-0.08507501653386214 0.13171360083853093 -0.10019514537731451 0.13171360083853093 -0.22130085428335342 0.17645634050454004 -0.10019514537731451 0.17645634050454004 -0.1325673764814077" free_energy=21.471276558084476 pbc="F F F"
H        5.98838663       6.84967085       7.13397044      -0.26641772      -0.75113323      -0.42650823       0.00028227       0.00053020       0.00020964       0.00023314       0.00011259       0.00012525      -0.16020865
H        3.86754694       3.25766246       4.09564606      -1.40376411      -0.69732904       2.04698306       0.00076095       0.00079598       0.00103561      -0.00072140      -0.00013232      -0.00027173      -0.89008800
H        3.70005470       5.92146964       6.91739172      -4.89713794      -0.71142844       1.52761287       0.00084163       0.00031710      -0.00039546      -0.00045130       0.00065072       0.00079410      -1.67779371
H        3.16180485       4.64457426       7.05861838       0.77623503       2.51548782      -0.60054589       0.00061441       0.00184959       0.00013212      -0.00025698      -0.00016696       0.00032101      -0.46363990
H        7.14738510       5.18024199       7.36376820      -0.26308102       0.13414712      -0.13592041       0.00020017       0.00014589       0.00006411      -0.00001955       0.00010226      -0.00009985      -0.05833321
H        5.50439628       5.53039857       6.30325920      18.36873669       2.24395272      -0.49752510      -0.00876703       0.00035535       0.00023253       0.00027667       0.00058756      -0.00076396      -0.31845792
H        3.71131965       7.02786075       6.81370300      -0.49036764      -0.26372277      -0.15408875       0.00061471       0.00020831       0.00002034       0.00010844      -0.00002787       0.00021968      -0.69976281
H        5.21068094       5.42490544       3.18902839    -222.02358753     393.27109504    -303.22851658      -0.03691861      -0.11633502      -0.06923708       0.08977004      -0.05075397       0.06589950      15.21987670
H        2.58105582       4.99919579       4.06032966       0.51702716      -2.27060875       0.21119004       0.00013141       0.00154087       0.00004355      -0.00015960       0.00001679      -0.00031509      -0.35877006
H        2.50794770       6.04893272       6.80083428       3.44609665      -0.46684354       0.33398487       0.00200365       0.00087612       0.00005322      -0.00009799       0.00015686      -0.00007347      -0.70890114
H        7.40714701       7.06996768       2.66892185      -0.84730291      -1.84775782       1.19495973       0.00019534       0.00089846       0.00040199      -0.00054625      -0.00025890       0.00040910      -0.43580052
H        2.89961495       7.22135435       3.08401852       0.00433255      -0.04890211       0.01846355       0.00001273       0.00005265       0.00000881      -0.00002042      -0.00000233      -0.00000264      -0.00693293
H        4.49618254       5.43994552       6.35907547     -16.60918931      -2.87374345      -0.20636183      -0.00958069       0.00000108      -0.00033613      -0.00031982       0.00095997      -0.00021948      -0.77530635
H        6.97475734       6.10503078       3.26589371       0.42667169       1.67176230      -1.01585133       0.00050868       0.00104971       0.00043054      -0.00051636      -0.00026258       0.00058539      -0.51700559
H        3.58284395       2.72192241       6.42948185       0.29470112      -0.12963462      -1.90678586       0.00004956       0.00019080       0.00133911       0.00021499      -0.00021916      -0.00005955      -0.30134116
H        5.54537708       4.83279102       3.64571129     222.33478449    -393.07483744     303.25197983      -0.03701112      -0.11627703      -0.06919232       0.08975213      -0.05079877       0.06593548      15.22114197
H        7.06791543       7.32279458       5.02695482      -0.03296091      -0.09477491      -0.09044148       0.00002384       0.00005577       0.00019534       0.00004321      -0.00003628       0.00001918      -0.03519881
H        2.81803231       3.73434327       4.18457265       1.06583546       1.40967338      -0.13319932       0.00082936       0.00169040       0.00012754      -0.00023045       0.00006018      -0.00067894      -0.87145460
H        6.90899038       2.78811093       6.39736108       0.00279862       0.02808225       0.01134507       0.00000033       0.00003359       0.00000548       0.00001357       0.00000135       0.00000335      -0.00384943
H        3.81032200       2.50880473       5.10897032      -0.40341038       1.95651550      -0.20077422       0.00013340       0.00071932       0.00229368      -0.00061573      -0.00018430      -0.00011370      -0.68689733
