20
Lattice="10.0 0.0 0.0 0.0 10.0 0.0 0.0 0.0 10.0" Properties=species:S:1:pos:R:3:forces:R:3:stresses:R:6:energies:R:1 energy=-33.08190263921441 stress="-0.006693786409876208 -0.00631763356429573 -0.0213684009100853 -0.00631763356429573 0.00719940879656883 -0.01810546755443263 -0.0213684009100853 -0.01810546755443263 -0.004688157907795907" free_energy=-33.08190263921441 pbc="F F F"
H        5.07374191       5.97272159       5.93097816      -3.52204926      -3.67062390       4.13721854       0.00231713       0.00245096       0.00277003       0.00010415      -0.00084505       0.00027706      -2.28050392
H        4.31995471       3.87280794       4.10644433      -1.31259323       2.66112541       1.47480240       0.00037069       0.00168632       0.00098217       0.00012052      -0.00058751      -0.00027304      -2.11203475
H        4.49367915       5.38023962       6.74001925      -4.42234158       8.12452825      10.44629231       0.00239571      -0.00283054      -0.00432212      -0.00427853       0.00100612       0.00059082      -3.06210361
H        3.40670686       5.31846291       7.15016094       3.24792712       2.24995458      -3.64547196       0.00162172       0.00106269       0.00175683      -0.00066093      -0.00086177       0.00063028      -1.30987255
H        5.21265647       6.01910717       7.29160188      -1.59172155      -0.12664327      -3.73118265       0.00120794       0.00064140       0.00211173       0.00033004       0.00050082      -0.00061340      -1.38797596
H        5.55389016       5.00847696       6.32907843      33.54651947      10.64516416      18.58206216      -0.01409420       0.00060282      -0.00244579      -0.00111972      -0.00797292      -0.00425063      -0.82387379
H        4.13807450       6.42331377       6.71480951       5.30012375       1.10311618       3.18860655       0.00128697      -0.00021515       0.00002152      -0.00098662      -0.00126303      -0.00105402      -1.90976429
H        5.25849634       5.15349060       3.76529602      -0.76090413      -0.27281166       3.33132655       0.00289454       0.00105373       0.00133811      -0.00033424      -0.00038551       0.00119145      -1.61989407
H        4.11569703       5.05079890       4.23183931       3.33573031       0.44355820       0.59786782       0.00023397       0.00070853       0.00198348       0.00004094      -0.00097046      -0.00067342      -2.40273141
H        3.55238926       5.80842561       6.06803992       0.70722457      -7.54932609      -1.77341526       0.00148322       0.00092227       0.00127413      -0.00084662      -0.00059331      -0.00161495      -2.09231875
H        6.46340556       6.17918745       3.47863835      -1.09492975      -1.29882314      -0.84015202       0.00034700       0.00025821      -0.00047243      -0.00046224      -0.00034304       0.00028053      -1.10061937
H        2.92796945       6.91901042       3.20802252       0.03356668      -0.05440359       0.02745373       0.00002435       0.00005483       0.00001423      -0.00002765       0.00001530      -0.00003160      -0.00740358
H        4.69732599       4.82275970       5.91364346     -36.28485059     -15.85670665     -35.95342179      -0.01362165      -0.00063989      -0.00654658      -0.00440640      -0.00566977      -0.00213355      -1.46330212
H        6.22167320       5.52157748       4.36619029      -1.78757974       0.61196496      -0.80670309       0.00167221       0.00127006       0.00078470       0.00008042       0.00025894       0.00108214      -1.60404738
H        3.53431165       4.83175660       5.33730890       6.98272094       9.76889568      12.89975846       0.00213643      -0.00069350      -0.00264061      -0.00226759      -0.00129906      -0.00047147      -2.18047553
H        4.97326336       4.54372678       4.69861543      -0.75827475       0.65300005       4.05868141       0.00166905       0.00084157       0.00243317      -0.00010277      -0.00153988       0.00101203      -2.60222908
H        6.74175361       6.56156995       4.47284800      -0.53110423      -1.11859180       1.23127300       0.00026168       0.00077402      -0.00060706      -0.00018185      -0.00017174       0.00041303      -0.99715154
H        3.35019265       4.32913365       4.46311054      -3.78749527     -10.08624400     -10.88377342      -0.00031238      -0.00253394      -0.00509830      -0.00283251      -0.00053008      -0.00173253      -1.83316181
H        6.81287271       3.06863987       6.41452852      -0.05830633       0.07391784      -0.01353657       0.00004499       0.00006908       0.00000765      -0.00001101       0.00001218      -0.00005333      -0.01216456
H        4.04370701       3.84477077       5.22633714       2.75833758       3.69894880      -2.32768618       0.00136686       0.00171596       0.00196700      -0.00026288      -0.00012862       0.00110698      -2.28027458
