20
Lattice="10.0 0.0 0.0 0.0 10.0 0.0 0.0 0.0 10.0" Properties=species:S:1:pos:R:3:forces:R:3:stresses:R:6:energies:R:1 energy=-60.99533959037513 stress="0.00030435983218172374 -0.004486239192157707 -0.0035531620238815897 -0.004486239192157707 0.002367784515871979 0.00400677118162793 -0.0035531620238815897 0.00400677118162793 0.0034800800280648503" free_energy=-60.99533959037513 pbc="F F F"
H        4.90834390       6.04999193       5.51318921      -0.58076354      -0.01137144       2.23178368       0.00117176       0.00067852       0.00132582      -0.00049175      -0.00093950      -0.00060270      -4.15437270
H        4.65716252       4.32777708       4.12362053       3.30236809       1.32585719      -1.95990954      -0.00098197       0.00058834      -0.00063591       0.00105419       0.00018810       0.00073098      -2.57957319
H        4.58672261       5.35963125       6.47951595       1.79009022       0.48390215      -1.56239154      -0.00004730      -0.00012961       0.00045767      -0.00129400       0.00004047       0.00010180      -3.59654844
H        3.59846578       5.67085094       6.83952734       0.26632201       1.43825208      -0.46539201       0.00023162       0.00051815       0.00051669      -0.00001458      -0.00021906       0.00073052      -1.66285132
H        5.50111420       5.99792599       6.42395044       0.43580722       1.02902220       0.34807443       0.00121253      -0.00010141       0.00046840       0.00030340      -0.00104624      -0.00029689      -2.69083469
H        5.46254408       5.06300508       5.84685185       1.36479179      -2.78512622       1.02344235      -0.00017258       0.00069270      -0.00070583      -0.00004686      -0.00042750      -0.00143691      -4.64435990
H        4.43493036       6.44741474       6.55768169       1.06211376      -1.95848100      -2.37098373       0.00179825       0.00049358       0.00155735       0.00064052      -0.00084333      -0.00001807      -2.52100874
H        5.29239116       5.32278046       4.79470927      -4.94210171       3.43485000      -6.63950523      -0.00200653      -0.00343022      -0.00160501       0.00114250       0.00065769       0.00020914      -4.44220446
H        4.24274860       5.31088559       4.39720169       0.96064975       1.49045756       0.90190263       0.00068755       0.00119612       0.00079920      -0.00031687       0.00109214      -0.00029812      -3.83478972
H        3.83361482       5.90746590       5.77500511       0.38892001      -1.00702033      -0.74071085       0.00089645       0.00045469       0.00145452       0.00035175       0.00073477       0.00004789      -3.34332018
H        6.23404764       5.54176563       4.28801976       0.85896027       1.29859765      -0.13164818      -0.00017424      -0.00008322       0.00053375       0.00048483       0.00001412      -0.00001450      -1.71356552
H        3.37401336       5.93780156       3.95934449       1.78346687      -3.36937409       2.63227865       0.00080881       0.00180628       0.00138594      -0.00095004       0.00054899      -0.00066525      -1.02951879
H        4.44929496       5.06441886       5.44869484      -1.08112255      -1.41542137      -0.71270283      -0.00223898      -0.00311498      -0.00215695      -0.00064529      -0.00064390      -0.00073145      -4.92442891
H        6.17527480       4.72217349       5.02353895       2.49032477       1.52033314       2.64750084      -0.00098406       0.00047719       0.00024727       0.00120880      -0.00041819      -0.00044887      -3.10245547
H        3.40593809       5.09659663       5.07151017      -0.30293943       1.08449352      -0.83051268       0.00016578       0.00120042       0.00203335       0.00069041       0.00054581       0.00009410      -2.96047224
H        5.17189159       4.30913737       5.07877456      -4.57425777      -6.06488163       2.66493469      -0.00072398      -0.00252580      -0.00151230       0.00087333      -0.00059151      -0.00082847      -3.78688673
H        6.04408355       5.86311406       5.37122608      -0.47958274      -0.19726082       1.10746376       0.00106632       0.00102320       0.00130427       0.00064509      -0.00113227      -0.00083130      -3.08206978
H        3.57407754       4.47669479       4.07769431      -3.54966512       3.52555550      -0.87662685      -0.00102064       0.00108139      -0.00009527       0.00105064      -0.00050778       0.00020796      -2.23585033
H        5.91244605       3.98368768       5.82707328      -0.47622959       2.28747727       0.50780402       0.00033736       0.00162698      -0.00002801      -0.00007387      -0.00016866      -0.00059061      -1.71018310
H        4.03265600       4.17685870       5.01038139       1.28284771      -2.10986136       2.22519839       0.00027823      -0.00008453      -0.00186487      -0.00060542      -0.00043729       0.00015453      -2.98004538
