20
Lattice="10.0 0.0 0.0 0.0 10.0 0.0 0.0 0.0 10.0" Properties=species:S:1:pos:R:3:forces:R:3:stresses:R:6:energies:R:1 energy=-69.60310905456195 stress="0.00011613101929385509 6.405041993426793e-05 7.270061056408267e-05 6.405041993426793e-05 1.39683243008162e-05 4.329676021153636e-07 7.270061056408267e-05 4.329676021153636e-07 -8.347953229489308e-05" free_energy=-69.60310905456195 pbc="F F F"
H        4.85300867       5.98082526       5.50000234       0.00223577       0.01979547       0.01711265      -0.00076230       0.00059066      -0.00095232      -0.00080313      -0.00077046      -0.00031283      -4.75451738
H        4.62822213       4.92380450       4.03951699       0.03139448       0.02375137      -0.03045666       0.00142250       0.00040380       0.00003408       0.00011559       0.00006733       0.00027726      -3.25941477
H        4.48361480       5.09882303       6.19060585      -0.02030301       0.10754538       0.01639180       0.00018626      -0.00014188      -0.00031682      -0.00128166       0.00053330       0.00039507      -4.25115701
H        3.40662145       5.28129408       6.38915830      -0.03394429      -0.02291935       0.00325292       0.00079608       0.00052770       0.00035046       0.00068219       0.00029270       0.00042928      -2.67877774
H        5.31279584       5.79817817       6.46906281       0.01437538      -0.00531086       0.02691100       0.00143765       0.00020578       0.00035625       0.00035028      -0.00066854       0.00005212      -2.74422407
H        5.46527349       5.01541848       5.69085705      -0.07623946      -0.07218771      -0.04333481      -0.00202394      -0.00039394       0.00048239      -0.00027792       0.00004329      -0.00070205      -4.70550660
H        4.20473037       6.13143829       6.39701232      -0.00353683      -0.00284216       0.00508277       0.00158294      -0.00008808       0.00047382       0.00019549      -0.00007113       0.00046823      -2.73382433
H        5.38455712       5.52762305       4.64501720      -0.09646273       0.02550385      -0.03256764      -0.00088588      -0.00021373       0.00107456       0.00003326       0.00078766      -0.00003207      -4.73581774
H        4.33322556       5.89229457       4.50927682       0.03300396       0.01516806       0.01610368       0.00080560       0.00034192       0.00032334      -0.00007409       0.00021139       0.00024068      -3.39373297
H        3.79528644       5.69239302       5.45864656       0.06150871      -0.09233101      -0.02887677      -0.00151484       0.00034129      -0.00093608      -0.00014488       0.00107314      -0.00066723      -4.64882515
H        6.36463049       6.01553567       4.47999832      -0.01834246      -0.03267812       0.00293883       0.00032708       0.00023586       0.00014910      -0.00011855      -0.00019799       0.00013190      -1.72281871
H        2.83567490       5.16324535       5.39734052       0.01473382       0.00016520       0.01112780       0.00041567      -0.00027989       0.00100323       0.00022956      -0.00016391      -0.00002840      -2.21690262
H        4.56182426       5.00638494       5.12112602      -0.00270211       0.06172703       0.04413036      -0.00609431      -0.00513994      -0.00616672      -0.00082778      -0.00011996      -0.00057877      -5.59577217
H        6.30331818       5.01592812       4.98005146       0.00146970       0.00730650      -0.03449475       0.00047413       0.00051012      -0.00004737       0.00055719       0.00014672       0.00012026      -3.19368658
H        3.71814871       4.53468196       5.59971990       0.01187631       0.01252966       0.00781287      -0.00063341       0.00125298       0.00082070       0.00055356      -0.00004126      -0.00006080      -3.72265091
H        5.37341006       4.41567749       4.71404399       0.06873393      -0.04293659       0.02443512       0.00101909       0.00055568       0.00055982       0.00042173       0.00028266       0.00101022      -3.76670978
H        5.95941705       5.96848601       5.51862529       0.00263510       0.00975871      -0.00387559       0.00052832       0.00003954       0.00100311       0.00062094      -0.00009247      -0.00018896      -3.23596687
H        3.61869845       5.01357397       4.58172473      -0.01240354       0.00284268      -0.01099499       0.00080422       0.00077830       0.00093029       0.00013666      -0.00084089       0.00000567      -3.71952693
H        6.03521855       4.08111375       5.54189175       0.01839629      -0.01864250       0.00961612       0.00044928       0.00038354       0.00003439      -0.00014929       0.00004054      -0.00010930      -1.77035384
H        4.25408512       4.07325788       4.68383232       0.00357099       0.00375439      -0.00031472       0.00178198       0.00010425       0.00074029      -0.00021872      -0.00043942      -0.00038623      -2.75292289
