20
Lattice="10.0 0.0 0.0 0.0 10.0 0.0 0.0 0.0 10.0" Properties=species:S:1:pos:R:3:forces:R:3:stresses:R:6:energies:R:1 energy=5310652.6089744335 stress="-15124.349433149317 25511.908712310113 4166.924346327333 25511.908712310113 -43065.51235855026 -7328.171460368023 4166.924346327333 -7328.171460368023 -5574.580173132165" free_energy=5310652.6089744335 pbc="F F F"
H        5.89542810       6.66439412       7.01688171      -0.38769121      -0.82977969      -0.42982617       0.00036591       0.00046020       0.00017016       0.00016507       0.00013849       0.00015491      -0.58274953
H        3.62798196       3.21910964       4.28132064   12045.72101204   -6612.13938421    1029.54148650      -3.39384840      -1.24299373      -0.17641958       0.35763398      -0.45039452       1.99128036     383.53686343
H        3.36313555       5.69276953       6.76982117 86973474.20019832 -147882229.09289455 -40773614.59161482   -6704.54138350  -19383.46725543   -1473.54676879   -5344.13781812    3143.14790514   11399.61589861 2295720.02257266
H        2.89712226       5.16326256       7.13760533    -527.85889415    -666.33166542     424.20451713      -0.11920700      -0.19198601      -0.07636747       0.11819521       0.09532101      -0.14593809      26.44876302
H        7.15762024       5.17415192       7.36837968      -0.27693202       0.16264807      -0.12124905       0.00021799       0.00015491       0.00004623      -0.00003255       0.00009265      -0.00012888      -0.05982533
H        5.40910171       5.78811910       6.48258776     381.63333796     254.23403196     120.93034744      -0.12656136      -0.05592176      -0.01254637      -0.02657856      -0.04007995      -0.08445797      12.64124639
H        3.54160225       6.86299618       6.86518395      14.81264928      38.42640259       0.85985143      -0.00222585      -0.01702203       0.00002046      -0.00036982      -0.00021473      -0.00665738      -0.01323799
H        5.29051500       5.25372887       3.31662730 -10525681.96773523 16691846.48666375 -13053225.37349278    -854.10463858   -2147.92669737   -1313.54932460    1679.70465718   -1059.20205236    1354.45752793  359207.40941761
H        2.56706298       5.05809519       4.05506278       0.34679257      -0.77879255       0.08793207       0.00013924       0.00070896       0.00005380      -0.00008899       0.00002439      -0.00023289      -0.13537459
H        3.20896286       5.95491397       6.84209786 -86972959.05909277 147882856.39111048 40773188.81227203   -6704.43975743  -19383.39010591   -1473.48371961   -5344.22105774    3143.06647386   11399.71744378 2295701.13411290
H        7.43293702       7.12750350       2.63162032      -0.70658672      -1.58604971       1.03022728       0.00017302       0.00085686       0.00038302      -0.00052458      -0.00024133       0.00037850      -0.28343189
H        2.89950073       7.22325170       3.08327943      -0.00725809      -0.04727169       0.02121687       0.00000121       0.00005118       0.00001031      -0.00002297      -0.00000353       0.00000786      -0.00776451
H        4.74284327       5.34508228       6.27215416    -383.02701057    -253.01969912    -119.77614117      -0.12577640      -0.05587728      -0.01243913      -0.02648787      -0.04053902      -0.08477307      12.90447278
H        6.96467887       6.05428158       3.29720660       0.18116147       1.34698994      -0.85364490       0.00057262       0.00103188       0.00040715      -0.00048996      -0.00025442       0.00061077      -0.38301322
H        3.57536793       2.72550868       6.47757728       0.08678447       0.06249138      -0.76808540       0.00001983       0.00007733       0.00066837      -0.00000988      -0.00007321      -0.00000805      -0.11645548
H        5.45280470       4.99636648       3.51788780 10525682.40979706 -16691846.22233889 13053225.37379071    -854.10468379   -2147.92666599   -1313.54930342    1679.70464600   -1059.20207744    1354.45754161  359207.40820434
H        7.06929105       7.32621468       5.02967292      -0.03804781      -0.09656439      -0.07957262       0.00002839       0.00005680       0.00018400       0.00003709      -0.00003939       0.00002219      -0.03422353
H        3.07339209       3.53931132       4.21421348  -12189.75323165    7037.81051814   -1474.08623831      -3.37989449      -1.12568044      -0.04909627       0.23562117      -0.40862383       1.95104503     365.27283685
H        6.90888892       2.78713109       6.39696275       0.00293678       0.02818365       0.01146956       0.00000037       0.00003364       0.00000557       0.00001369       0.00000143       0.00000351      -0.00387792
H        3.81352409       2.67378532       4.85136798     143.68781027    -424.80459971     445.20675419      -0.01297492      -0.11558434      -0.12613695       0.12105129      -0.04101692       0.03899360      17.45043844
