20
Lattice="10.0 0.0 0.0 0.0 10.0 0.0 0.0 0.0 10.0" Properties=species:S:1:pos:R:3:forces:R:3:stresses:R:6:energies:R:1 energy=-69.48380341698666 stress="0.001497569161542433 -0.0009125576361074304 -0.00018253767605866253 -0.0009125576361074304 0.0021193000253093316 -0.0006828897499124385 -0.00018253767605866253 -0.0006828897499124385 -0.0004935754528025648" free_energy=-69.48380341698666 pbc="F F F"
H        4.94104319       5.97845189       5.45751841       0.11714941      -0.26836795       0.03911500      -0.00059098       0.00068166      -0.00072541      -0.00079293      -0.00088238      -0.00017639      -4.73876994
H        4.64278818       4.84632904       4.07173784      -0.52759779       1.00669101      -1.34201080       0.00140402       0.00029197      -0.00055746       0.00030217       0.00004791      -0.00034954      -3.24619016
H        4.45592080       5.17387249       6.19117315      -0.73338306       0.90087638       0.22529302       0.00054342       0.00006792      -0.00023800      -0.00139699       0.00054234       0.00039422      -4.20823947
H        3.40305856       5.50531460       6.33938492       0.10505287       0.57744651       0.28039116       0.00101422       0.00022664       0.00022275       0.00039103       0.00035717       0.00041172      -2.69034837
H        5.35565974       5.79670974       6.44684523       0.17410840       0.08879386       0.04407123       0.00148584       0.00014705       0.00030836       0.00034175      -0.00065987      -0.00002450      -2.73403037
H        5.43014271       4.96089550       5.72321228      -1.02492944      -0.62530131      -0.50030283      -0.00193812      -0.00055586       0.00032514      -0.00046781       0.00039450      -0.00067452      -4.71813052
H        4.30099750       6.24613873       6.33550008      -0.04914490      -0.28453229      -0.19253381       0.00158291       0.00000921       0.00048890       0.00030849      -0.00007865       0.00024610      -2.74778613
H        5.42848128       5.40803383       4.64488181       0.20561969      -1.49933114       0.55549578      -0.00121511       0.00049114       0.00088891      -0.00029838       0.00017491       0.00034197      -4.73547568
H        4.44545355       5.88871419       4.45256972      -0.52850455      -0.14482053       0.27126396       0.00061323       0.00043951       0.00065963       0.00004512       0.00000463       0.00021286      -3.39097463
H        3.85460327       5.83446010       5.40168449       0.84872224      -0.91812656      -0.27007719      -0.00140463       0.00082115      -0.00033300      -0.00043871       0.00086106      -0.00051067      -4.62051946
H        6.47789039       5.73113939       4.46755982      -0.31880964      -0.07444888       0.03698033       0.00052028       0.00016705       0.00016100      -0.00008731      -0.00023261       0.00014890      -1.71808938
H        2.83735556       5.42920374       5.33959952       0.13765131      -0.21182492       0.03928288       0.00044039      -0.00018929       0.00098845       0.00029413      -0.00012623      -0.00021981      -2.21385013
H        4.53195348       5.02698342       5.13180463       0.81045036       0.47684548       0.43764497      -0.00539441      -0.00475356      -0.00629537      -0.00084817       0.00004658      -0.00047098      -5.62489053
H        6.25452878       4.78502590       5.02000831       0.49447869       0.26616701       0.25909123       0.00025677       0.00061766      -0.00012826       0.00057543       0.00016641       0.00007658      -3.18946299
H        3.62150613       4.69710587       5.60340034       0.16622832      -0.12916910      -0.53775537      -0.00054003       0.00122351       0.00068315       0.00027579       0.00019205       0.00025957      -3.71128129
H        5.26097358       4.28533885       4.82670051      -0.11693726       1.04624518      -0.55617947       0.00116522       0.00112322       0.00042815       0.00009810       0.00021956       0.00090306      -3.76812354
H        6.04005341       5.82445017       5.49019408       0.24193370       0.27451277       0.33492320       0.00049883       0.00017975       0.00089495       0.00071455      -0.00019121      -0.00048818      -3.21009952
H        3.61374819       5.13219331       4.55692914       0.34693875      -0.08068554       0.10459916       0.00111374       0.00064912       0.00106467       0.00031119      -0.00090450      -0.00014567      -3.70418506
H        5.89232730       3.95440861       5.68442158      -0.15147882       0.30788266      -0.14222656       0.00043574       0.00051577       0.00015278      -0.00019947       0.00006245      -0.00017077      -1.75987699
H        4.10327602       4.12520836       4.72238500      -0.19754829      -0.70885265       0.91293412       0.00150625      -0.00003431       0.00051705       0.00018913      -0.00017663      -0.00067651      -2.75347925
