20
Lattice="10.0 0.0 0.0 0.0 10.0 0.0 0.0 0.0 10.0" Properties=species:S:1:pos:R:3:forces:R:3:stresses:R:6:energies:R:1 energy=-66.88808712940639 stress="0.0003982370133252793 1.0260064869516354e-05 0.0009893633557970607 1.0260064869516354e-05 -0.0023783508705757976 0.0013673557651337782 0.0009893633557970607 0.0013673557651337782 -0.001607413955272939" free_energy=-66.88808712940639 pbc="F F F"
H        4.98739653       5.92251466       5.45734957       0.61082035      -0.26098883      -0.07831020      -0.00186691       0.00067347      -0.00105005      -0.00078751       0.00027271       0.00061235      -4.75491076
H        4.55252738       4.69434366       4.16950537      -1.08736536       2.14233711      -2.09779346      -0.00160877       0.00007041      -0.00001341       0.00100753      -0.00055428      -0.00080399      -3.24932282
H        4.57881353       5.27023472       6.30651902      -0.23654931      -0.89520310      -0.17937497      -0.00037239      -0.00081048       0.00031184      -0.00068430       0.00056442       0.00082446      -3.87898160
H        3.65129693       5.73689203       6.67682181      -0.06705342       0.32559969       0.12089767       0.00050828       0.00041660       0.00032766       0.00041721       0.00010484       0.00057214      -1.83553137
H        5.56495124       5.80631351       6.38109490       0.18077532       0.09550673       0.10321285       0.00089536       0.00013057       0.00039545       0.00029106      -0.00050560      -0.00005699      -2.76801563
H        5.43444585       4.91867437       5.73292016      -0.83065901      -0.62390478      -0.16090784      -0.00126580      -0.00104293      -0.00080879      -0.00041804       0.00109032      -0.00017042      -4.76406635
H        4.57741245       6.36462786       6.39390980      -0.49208425       0.03302861      -0.01064807       0.00106100      -0.00008781       0.00046717       0.00022884      -0.00013720       0.00009954      -2.70154375
H        5.32197238       5.25567340       4.67721676       0.22074442       1.04190693      -0.78809233      -0.00151020      -0.00154037      -0.00123114      -0.00094863      -0.00013330      -0.00061454      -4.74421678
H        4.31376934       5.76652507       4.56569119      -0.10215519      -0.09972578       0.13136476       0.00192949       0.00071241       0.00079459       0.00076239      -0.00039535      -0.00035695      -3.92157944
H        3.92738469       5.87136061       5.62564761      -0.21739991       0.90550360       0.00990317      -0.00252148      -0.00044929      -0.00119651       0.00051137      -0.00037354      -0.00054997      -4.25444729
H        6.30975735       5.52943321       4.28083653       0.38772205      -0.07607009       0.09850246       0.00009734       0.00025670       0.00035713      -0.00010310      -0.00014978       0.00001988      -1.73548965
H        3.20583170       5.94874025       4.81983201      -0.06984863       0.05598257      -0.09737248       0.00076072       0.00017686      -0.00053529      -0.00086014      -0.00042999      -0.00028335      -2.21560750
H        4.43270330       4.95264860       5.26678219       0.85150935       0.29987885       0.05109644      -0.00088438      -0.00184142      -0.00077845       0.00026302       0.00062744      -0.00006921      -5.59090604
H        6.19869261       4.65948099       4.98375363      -0.36662467      -0.42803460      -0.26951002       0.00073401       0.00052151      -0.00008908       0.00023879       0.00014927       0.00035254      -3.19264899
H        3.34973788       4.96311309       5.40769039      -0.13760047       0.18616134      -0.13075558       0.00038408       0.00100596       0.00126361       0.00009106      -0.00002306      -0.00019984      -3.05821766
H        5.15032284       4.18852492       4.93400566      -0.06669522      -0.70968059       0.60253768       0.00177288       0.00017283      -0.00058517       0.00056230      -0.00037690       0.00085011      -3.63696557
H        6.07696677       5.72336484       5.35810251       0.04494727       0.21063500       0.50529156       0.00046775       0.00027897       0.00052660       0.00040774      -0.00010982      -0.00016091      -3.25664901
H        3.51552359       5.03471281       4.31261878       0.90674158      -0.71654946       0.04397778       0.00021555      -0.00139042       0.00046331      -0.00010069       0.00127780       0.00060611      -2.98730746
H        5.85913791       3.89787815       5.73733938       0.25557986       0.07697227       0.09106259       0.00024005       0.00043390       0.00009319      -0.00018457      -0.00005620      -0.00009085      -1.74994112
H        3.88311732       4.12492096       4.81987363       0.21519523      -1.56335548       2.05491800       0.00136166      -0.00006584      -0.00032005       0.00067305       0.00014759      -0.00056985      -2.59173834
