20
Lattice="10.0 0.0 0.0 0.0 10.0 0.0 0.0 0.0 10.0" Properties=species:S:1:pos:R:3:forces:R:3:stresses:R:6:energies:R:1 energy=-66.74210519673044 stress="0.0026079983840081775 -0.000644294240984817 0.0013898565411593897 -0.000644294240984817 0.0001413354108414325 0.001991502822157957 0.0013898565411593897 0.001991502822157957 0.00031587432774963636" free_energy=-66.74210519673044 pbc="F F F"
H        4.98165900       5.90816560       5.47858344      -0.27912212      -0.24033712      -0.42062522      -0.00077023       0.00038183      -0.00207618      -0.00092741       0.00031597       0.00069867      -4.77418290
H        4.56113008       4.70931394       4.14626606      -1.19050108       0.99875526      -0.56442097      -0.00155753       0.00017079       0.00073838       0.00068680      -0.00070792      -0.00096606      -3.23076676
H        4.58553440       5.27045641       6.31865372      -0.63163244      -0.48108596       0.12758123      -0.00008042      -0.00019641       0.00057395      -0.00000901       0.00017796       0.00047539      -3.88286207
H        3.70107171       5.80800135       6.74519239       0.23981854      -0.42138060       0.06028547       0.00052602       0.00022682       0.00028158       0.00036107      -0.00009293       0.00001560      -1.77456004
H        5.57346918       5.79513620       6.39478228       0.23595622       0.15244401      -0.14990205       0.00086083       0.00019583       0.00051828       0.00032316      -0.00052621      -0.00014667      -2.75915135
H        5.44259178       4.90924296       5.73906210      -2.81471718      -1.21087825      -0.54183942      -0.00049075      -0.00090646      -0.00034676      -0.00006970       0.00132064      -0.00032279      -4.76036549
H        4.59976116       6.38359357       6.39267400      -0.32043892      -0.60543970      -0.04518948       0.00075157       0.00043234       0.00020883       0.00029570       0.00039703      -0.00002026      -2.70128748
H        5.30764078       5.25655926       4.68816936       1.27081774      -0.08814246       0.05519318      -0.00225853      -0.00145844      -0.00152178      -0.00126507      -0.00021009      -0.00035091      -4.72791552
H        4.32103818       5.76772016       4.58980488      -0.57631095       0.11256995       0.00070287       0.00082364       0.00058507       0.00096154       0.00078735      -0.00066496      -0.00006857      -3.94301689
H        3.90603295       5.84785833       5.66392036       1.31843111       0.86908356      -1.11615428      -0.00090625      -0.00010530      -0.00027024       0.00076242      -0.00059304      -0.00020142      -4.26375701
H        6.28872828       5.51426947       4.27793455       0.72086665       0.35019702      -0.01816967      -0.00006190       0.00012681       0.00040951       0.00004995      -0.00007812      -0.00003384      -1.73837529
H        3.23559465       5.96351075       4.80808431      -0.44849857       0.49411178       0.34897934       0.00045412       0.00005163      -0.00051092      -0.00068216      -0.00007642      -0.00019343      -2.25024419
H        4.41854294       4.93612079       5.27323845       1.80465913       1.83088485       1.37756470      -0.00022491      -0.00168947       0.00035246       0.00035826       0.00077595      -0.00001295      -5.54445145
H        6.17892931       4.64032281       4.96535541      -0.40820491      -0.19135368       0.06730251       0.00074623       0.00059769      -0.00016750       0.00047653       0.00016618       0.00032430      -3.18736330
H        3.32561447       4.96441939       5.34804570       0.17001542      -0.15391932       0.29508653       0.00053914       0.00082681       0.00043305       0.00008221      -0.00016064      -0.00004565      -2.98867932
H        5.12683220       4.17610649       4.93540252      -0.05735118       0.56984219      -0.20769561       0.00182783       0.00066977      -0.00011201       0.00038821       0.00002726       0.00098309      -3.65796009
H        6.07817336       5.71260307       5.36452520      -0.20167612       0.06089196      -0.13403976       0.00069567       0.00043144       0.00080164       0.00065551      -0.00010569      -0.00033870      -3.24108471
H        3.52832589       5.05856062       4.27051974       0.79156186      -1.41092695      -0.28046506       0.00001458      -0.00095389       0.00018799      -0.00036069       0.00136956       0.00036485      -2.95079630
H        5.85050945       3.87998690       5.72159270       0.23463720       0.06059763       0.22929630       0.00021106       0.00044599       0.00003526      -0.00014366      -0.00006468      -0.00012150      -1.74714148
H        3.88058183       4.12802966       4.78570372       0.14168960      -0.69591417       0.91650940       0.00150782       0.00030847      -0.00018123       0.00022204       0.00011999      -0.00068345      -2.61814357
