20
Lattice="10.0 0.0 0.0 0.0 10.0 0.0 0.0 0.0 10.0" Properties=species:S:1:pos:R:3:forces:R:3:stresses:R:6:energies:R:1 energy=-22.32614432175358 stress="0.0039752354376980745 -0.0007494273907827611 -0.0005637261928372363 -0.0007494273907827611 0.004425567287445991 -0.00030042520390566617 -0.0005637261928372363 -0.00030042520390566617 0.005385851599283075" free_energy=-22.32614432175358 pbc="F F F"
H        5.21926260       5.95951886       6.84492772       2.21463522       0.85337218      -0.34161341      -0.00154350      -0.00003389       0.00002671      -0.00003354       0.00043052       0.00003356      -2.05692142
H        4.00385946       3.54622650       4.18670959      -2.29291266       0.56082358       1.17724185       0.00159838       0.00102006       0.00060066      -0.00045440      -0.00027183      -0.00024946      -1.15561045
H        4.14888112       5.89948140       6.96743915      -2.18727040      -2.74870399       0.06763654      -0.00190982      -0.00006988       0.00046728       0.00021654      -0.00038057       0.00019813      -2.48142942
H        3.30802385       5.24002145       7.38413221       1.21513473       1.17605275      -0.89896299       0.00065512       0.00060765       0.00030801      -0.00026543      -0.00035766       0.00036870      -1.10565297
H        6.29694603       5.77385142       7.09489274      -0.30009391      -0.09492284      -0.16724172       0.00026541       0.00003373       0.00007488       0.00004438       0.00010262       0.00003805      -1.04314412
H        5.76306011       5.14243304       6.33302438      -1.14179494      -0.36449576      -0.64298504       0.00093769      -0.00016849       0.00003757      -0.00016496       0.00022311      -0.00002589      -1.52770517
H        3.82781242       6.96042024       6.96890806       0.13047027       0.10672840      -0.04718992       0.00033513       0.00007297       0.00005051       0.00002232      -0.00007355      -0.00005687      -1.14008105
H        5.57701535       5.57706359       3.26743306      -0.55062912       0.02859118      -0.52547029      -0.00022148      -0.00020282      -0.00008961       0.00004881      -0.00009332      -0.00015433      -1.03315472
H        3.10629294       4.85244542       4.05546947       0.60202662      -0.74033708       0.11918894       0.00036437       0.00057818       0.00007963      -0.00009376       0.00004038      -0.00031369      -0.64779543
H        3.09628783       6.13991043       6.73887180      -0.77801941      -0.05875656      -0.21347270      -0.00030048       0.00013268       0.00006698       0.00001428      -0.00019624       0.00001641      -1.54916584
H        7.17673734       6.87701238       3.18364113       0.07657399       0.21622045       0.28308846       0.00000699      -0.00004484       0.00021287       0.00006573       0.00000534      -0.00002663      -1.01562986
H        2.89240578       7.13619922       3.12003480       0.00358913      -0.03832250       0.01569705       0.00000038       0.00004376       0.00000734      -0.00001792       0.00000168      -0.00000410      -0.00587861
H        4.64236899       5.32370107       6.10128523       0.83367900       0.98658077       2.05845467       0.00157114       0.00057446       0.00097179       0.00054585      -0.00009565      -0.00025312      -1.62928565
H        6.47283094       6.12703635       3.61423363       0.78243836       0.65261984       1.10625121      -0.00027521       0.00014315       0.00011631       0.00016769       0.00003023      -0.00005803      -1.52165195
H        3.55232918       3.02905843       6.12171479       0.19385231      -0.00230348      -1.01898285       0.00006145       0.00012737       0.00068021       0.00001073      -0.00009607      -0.00002159      -0.54982218
H        5.26829192       4.68363685       3.85731584      -0.45185366      -0.50100964       0.42944302       0.00046857       0.00019000       0.00004023       0.00005439      -0.00006688       0.00028652      -0.63927706
H        6.95848397       6.90706054       4.29314011      -0.39519242      -0.74362319      -1.05639085       0.00016396       0.00031570       0.00047503       0.00025432       0.00011840       0.00021479      -1.00589282
H        2.85202694       3.79063383       4.32062560       2.61183742      -0.94359991       0.27785398       0.00146048       0.00038407       0.00027860      -0.00022088       0.00010482      -0.00050406      -1.10114900
H        6.89333450       2.86886692       6.40992302      -0.01553202       0.03124293      -0.00105673       0.00000878       0.00003552       0.00000004      -0.00000120       0.00000060      -0.00001766      -0.00467712
H        3.83551034       2.79539981       5.04378855      -0.55093851       1.62384287      -0.62148922       0.00032787       0.00068618       0.00098081      -0.00049338       0.00001033      -0.00022017      -1.11221948
