20
Lattice="10.0 0.0 0.0 0.0 10.0 0.0 0.0 0.0 10.0" Properties=species:S:1:pos:R:3:forces:R:3:stresses:R:6:energies:R:1 energy=-55.78060478495572 stress="0.0006478021669930912 0.0039016101500069242 0.0037642658461591243 0.0039016101500069242 0.005755030966126396 -0.002872603302636436 0.0037642658461591243 -0.002872603302636436 0.0015219271984437271" free_energy=-55.78060478495572 pbc="F F F"
H        4.87411789       6.01536546       5.61127206       1.22847405      -0.36371675      -1.20858142      -0.00175479      -0.00002482      -0.00112449      -0.00101088       0.00019503       0.00019108      -4.26894745
H        4.56728531       3.99073746       4.00488246       3.59457132      -1.44895415       1.78575035      -0.00074827      -0.00058221       0.00136958       0.00034946       0.00050543       0.00082168      -2.13298960
H        4.51490924       5.26640934       6.42896518      -0.89803754       2.14689154       1.64877134       0.00011783       0.00042577      -0.00101203      -0.00140726       0.00013402      -0.00018799      -3.61026241
H        3.54209344       5.70200252       6.74463716      -0.98981545      -0.99361843       0.34573318      -0.00009670      -0.00021238       0.00018950       0.00034823      -0.00008929      -0.00029737      -1.71557453
H        5.39945791       5.91269108       6.58013696       0.77485210      -0.63259088      -0.39877022       0.00006879       0.00026630       0.00049308       0.00055546      -0.00010574      -0.00012214      -2.73865247
H        5.42671787       5.05945362       5.82682847       2.03012298      -0.24543358      -0.92526407      -0.00166538       0.00086266       0.00162554       0.00030116      -0.00003951      -0.00042795      -4.19715600
H        4.38190147       6.37472299       6.50968566      -0.45859074       0.82129173       0.58117544      -0.00033871       0.00005090      -0.00035939       0.00030165       0.00074237      -0.00014205      -2.64830323
H        5.28238342       5.49796856       4.73718673      -0.97676960      -0.83226739       2.89235949       0.00157566       0.00018816       0.00207315      -0.00025178       0.00048961       0.00122903      -4.10907078
H        4.33825358       5.00499947       4.33245119       0.84215283       0.71712685      -0.14612198       0.00154923       0.00040335      -0.00101562      -0.00094745       0.00020473       0.00008766      -3.54348382
H        3.79665741       5.84832809       5.67521652      -1.32753468      -0.47373912       0.61802823      -0.00015700       0.00048476       0.00121674       0.00034583       0.00117366       0.00025417      -3.19431696
H        6.22495363       6.07882859       4.55373313      -0.54287282      -1.49232604      -0.14817322       0.00056301       0.00087215      -0.00015872      -0.00041239      -0.00023268       0.00025835      -1.68155856
H        3.04776418       6.61748961       3.40387114       0.09979225      -0.16073413       0.14590879       0.00006262       0.00013536       0.00011690      -0.00010138       0.00006799      -0.00007117      -0.03356522
H        4.44617592       5.02788551       5.39293314       0.55037335      -0.98130554      -1.32358794      -0.00336619      -0.00236017      -0.00548264      -0.00135157      -0.00171192       0.00092473      -4.63681885
H        6.24436814       5.05330406       5.07537828      -2.07804878      -0.24111401      -0.74604908       0.00153282       0.00126069       0.00030738      -0.00004704       0.00012808       0.00057639      -2.61574242
H        3.42801939       4.96043389       5.01542698       1.03825618       0.65282622       1.10894233       0.00053905       0.00132690       0.00048642       0.00024456      -0.00028837      -0.00031759      -2.70522393
H        5.19764768       4.40708000       4.89354659       0.46861111       1.19681081      -0.85174773       0.00235010       0.00094660       0.00167576       0.00062954       0.00151942       0.00082057      -3.58788957
H        5.97536954       5.99613136       5.62299835      -0.64160906      -0.64234801      -0.48195206       0.00029898       0.00014974       0.00011251       0.00069172       0.00073787       0.00036732      -3.09179611
H        3.52487910       4.26048114       4.16969043      -2.14359022      -0.07618139      -0.31025713      -0.00099671      -0.00028413      -0.00018774      -0.00019664       0.00052020       0.00046369      -2.12696824
H        6.52671490       3.52982569       6.26308431      -0.32422677       0.49829216      -0.29621434       0.00020383       0.00038784       0.00016630      -0.00019734       0.00012728      -0.00022187      -0.10341296
H        4.15209157       4.02583929       5.06558616      -0.24611053       2.55109011      -2.28994997       0.00090963       0.00145755       0.00102969      -0.00071648      -0.00031394      -0.00030494      -3.03887167
