20
Lattice="10.0 0.0 0.0 0.0 10.0 0.0 0.0 0.0 10.0" Properties=species:S:1:pos:R:3:forces:R:3:stresses:R:6:energies:R:1 energy=-69.42313812741652 stress="0.00199857887944668 -0.0016557604308347778 -0.000135314976204255 -0.0016557604308347778 0.0026231528111435353 -0.0005238131654622422 -0.000135314976204255 -0.0005238131654622422 -0.0010297401117044173" free_energy=-69.42313812741652 pbc="F F F"
H        4.97118696       5.97083061       5.43233609      -0.13574602      -0.19949056       0.10678601      -0.00063777       0.00059204      -0.00047385      -0.00094437      -0.00066746      -0.00006942      -4.72891472
H        4.63408091       4.80268019       4.08196036      -1.46682878       1.42925659      -1.28744405       0.00149536       0.00051939      -0.00056833       0.00036658      -0.00020883      -0.00044568      -3.20588028
H        4.45736811       5.19412806       6.19340039      -0.19745981       1.30921806       0.03213777       0.00046901       0.00011090      -0.00003579      -0.00145982       0.00044240       0.00039518      -4.19300914
H        3.43224652       5.59463488       6.34493463      -0.30783879       0.04302503       0.19480185       0.00082017       0.00023258       0.00020044       0.00049634       0.00035294       0.00027393      -2.70284753
H        5.38665474       5.78878419       6.42503042      -0.12860866      -0.04256171      -0.06796935       0.00144537       0.00019346       0.00033995       0.00036151      -0.00049517      -0.00001653      -2.75856964
H        5.41530673       4.93767006       5.71585667       0.08553957       0.12332956       0.13950513      -0.00216875      -0.00063246       0.00004026      -0.00063311       0.00005629      -0.00051221      -4.72377525
H        4.35571628       6.27782721       6.31020458       0.04368959      -0.05835797      -0.03023636       0.00133695      -0.00002773       0.00038731       0.00031665      -0.00004057       0.00009238      -2.76958391
H        5.42756602       5.36596795       4.63328067       0.28288350      -1.18707992       0.69003670      -0.00112949       0.00045426       0.00088690      -0.00034571       0.00034137       0.00034104      -4.72911785
H        4.44875337       5.86720656       4.43163544       0.46571214      -0.06637066       0.01203382       0.00073870       0.00045010       0.00064884       0.00027255       0.00019719       0.00002213      -3.38189377
H        3.87885552       5.87205200       5.38964985       0.65921031      -1.05187479      -0.07895020      -0.00136033       0.00086175      -0.00053588      -0.00053732       0.00095976      -0.00042472      -4.61318345
H        6.47927670       5.67353997       4.45199048      -0.21758907      -0.23050665      -0.01982541       0.00047557       0.00024190       0.00011392      -0.00013956      -0.00021958       0.00013905      -1.72051416
H        2.84165505       5.51080896       5.36266668       0.11544507      -0.02469801      -0.02877966       0.00042875      -0.00019307       0.00094274       0.00034587      -0.00011051      -0.00016095      -2.21265525
H        4.52053367       5.03035604       5.13326535      -0.06190041      -0.10399854      -0.00927218      -0.00520955      -0.00477425      -0.00609384      -0.00063507      -0.00008754      -0.00074143      -5.62768151
H        6.24114481       4.73307032       5.01574352       0.38402991       0.41945984       0.29723159       0.00034789       0.00063248      -0.00006062       0.00055089       0.00007888       0.00011838      -3.19582067
H        3.59999497       4.75363482       5.62175253       0.03436019      -0.13086646      -0.02469955      -0.00061933       0.00121566       0.00051496       0.00037468       0.00010093       0.00033791      -3.71963172
H        5.23250658       4.25172250       4.84829964      -0.74903427       1.08137110      -0.53750423       0.00153420       0.00114407       0.00010971       0.00005419      -0.00002284       0.00072538      -3.75564298
H        6.06167002       5.77733292       5.47889791      -0.01975020      -0.11889849       0.03066412       0.00046503       0.00033732       0.00083142       0.00074223       0.00004643      -0.00033504      -3.22777184
H        3.58668380       5.16040968       4.57153433       1.34511629      -0.74858835       0.10474893       0.00154754       0.00074307       0.00105001       0.00039530      -0.00075942      -0.00047001      -3.66631452
H        5.87020396       3.93037179       5.70591108      -0.07000228       0.05544054      -0.10190703       0.00038120       0.00040111       0.00015177      -0.00018159       0.00007460      -0.00012732      -1.75619101
H        4.05035687       4.13694903       4.75916035      -0.06122825      -0.49780862       0.57864210       0.00163807       0.00012058       0.00052033       0.00007597      -0.00017418      -0.00079783      -2.73413891
