20
Lattice="10.0 0.0 0.0 0.0 10.0 0.0 0.0 0.0 10.0" Properties=species:S:1:pos:R:3:forces:R:3:stresses:R:6:energies:R:1 energy=-69.44144982591304 stress="0.0018104979998317735 -0.001181119390611043 9.11333166165559e-05 -0.001181119390611043 0.002291795917235831 -0.00024384614210672887 9.11333166165559e-05 -0.00024384614210672887 -0.0013439506249487815" free_energy=-69.44144982591304 pbc="F F F"
H        4.96412593       5.96735458       5.44639375      -0.20893652       0.18497546       0.05771463      -0.00065854       0.00045279      -0.00058912      -0.00081464      -0.00075863      -0.00003199      -4.74938914
H        4.63739480       4.82401221       4.07300157      -0.84852454       1.31938446      -1.20504525       0.00158021       0.00053902      -0.00057349       0.00032630      -0.00001186      -0.00045082      -3.21344167
H        4.45247171       5.18515802       6.18624362      -0.07170936       1.09025784       0.34428189       0.00043414       0.00000972      -0.00021566      -0.00142589       0.00047612       0.00043394      -4.21656131
H        3.42117216       5.56587457       6.34347182      -0.26064287      -0.24013600       0.08586345       0.00078758       0.00035769       0.00024612       0.00061988       0.00034544       0.00026094      -2.69856672
H        5.37532478       5.78451118       6.43901583      -0.10489838       0.05655863      -0.00747725       0.00155572       0.00016341       0.00031194       0.00031619      -0.00056766       0.00000962      -2.74250205
H        5.41863642       4.94917783       5.71508917      -0.13009908      -0.38711843       0.06773289      -0.00218810      -0.00082089      -0.00000226      -0.00060273       0.00015200      -0.00046326      -4.73385225
H        4.33657686       6.26316753       6.32417286       0.23434118       0.03286865      -0.06851023       0.00142127      -0.00010655       0.00042727       0.00028990      -0.00010491       0.00008597      -2.76101784
H        5.43094195       5.38439378       4.63695898       0.21261467      -1.44195569       0.69738833      -0.00089569       0.00055507       0.00095306      -0.00031695       0.00038561       0.00038756      -4.73294428
H        4.44852647       5.87984409       4.44300273       0.39232165      -0.08151154      -0.03751821       0.00069884       0.00044045       0.00062339       0.00023531       0.00019108       0.00003592      -3.38504962
H        3.87426488       5.85921285       5.39718722       0.42927247      -1.17912969      -0.34853061      -0.00141323       0.00090964      -0.00065710      -0.00046499       0.00094624      -0.00044838      -4.62211200
H        6.48668718       5.68750198       4.46619840      -0.19877167      -0.06046381      -0.17281602       0.00049115       0.00014925       0.00005789      -0.00009013      -0.00019779       0.00013627      -1.71960527
H        2.84287299       5.48072497       5.35598212       0.10687372       0.03203805      -0.02171939       0.00044941      -0.00020871       0.00090687       0.00032135      -0.00011658      -0.00013104      -2.21995066
H        4.52422843       5.02751270       5.12693231       0.16381507       0.11652975       0.27931998      -0.00527931      -0.00471850      -0.00633655      -0.00072407      -0.00007712      -0.00057089      -5.62033132
H        6.24434917       4.74670989       5.01907245       0.59331147       0.48445765       0.40091368       0.00018599       0.00065119      -0.00008985       0.00056564       0.00014009      -0.00000763      -3.19040704
H        3.60788931       4.72852546       5.60931495      -0.10272722       0.31500769       0.09604620      -0.00065185       0.00137473       0.00068864       0.00043642       0.00008665       0.00029284      -3.71381326
H        5.24513410       4.26580779       4.83891465      -1.07399954       0.96266193      -0.99767389       0.00137003       0.00109821       0.00025131      -0.00001538       0.00011496       0.00074110      -3.74495774
H        6.05987700       5.79524865       5.48825625      -0.23445458      -0.25790785       0.11203543       0.00055562       0.00040688       0.00094365       0.00077130      -0.00000193      -0.00035797      -3.20890104
H        3.59582150       5.15788100       4.56399089       0.90863105      -0.40144139       0.04842546       0.00132323       0.00058070       0.00108276       0.00038036      -0.00081454      -0.00031218      -3.68051237
H        5.86738758       3.93848672       5.70354690      -0.01463737       0.16916579      -0.10182573       0.00039494       0.00045554       0.00014504      -0.00019812       0.00003567      -0.00011955      -1.75850858
H        4.05807835       4.13887192       4.73076447       0.20821982      -0.71424151       0.77139465       0.00164908       0.00000217       0.00048215       0.00014644      -0.00013171      -0.00067157      -2.72902567
