20
Lattice="10.0 0.0 0.0 0.0 10.0 0.0 0.0 0.0 10.0" Properties=species:S:1:pos:R:3:forces:R:3:stresses:R:6:energies:R:1 energy=-57.56574742314065 stress="-0.0011059571478837453 -0.009181610132663769 -0.0042321603264552825 -0.009181610132663769 -0.003942523386817695 -0.004599286741591236 -0.0042321603264552825 -0.004599286741591236 0.001712885051300513" free_energy=-57.56574742314065 pbc="F F F"
H        4.83763620       6.05360981       5.60995476       2.10099814       2.51978057       2.07400779       0.00028230      -0.00087876      -0.00024931      -0.00134303      -0.00057786      -0.00102049      -4.13026949
H        4.72928741       4.09266250       4.07694177      -3.66288326      -0.40884801      -1.23532923       0.00080815       0.00037149      -0.00028709      -0.00004605      -0.00122320      -0.00020185      -2.23128870
H        4.53965129       5.28333641       6.48507781       1.65760616       1.89209229      -2.52193960       0.00122377       0.00083306       0.00099648      -0.00108744      -0.00001187       0.00006691      -3.55276823
H        3.53103921       5.65064138       6.75624728      -0.40007378      -0.25512496      -0.24349005       0.00005757       0.00002892       0.00044232       0.00027443      -0.00023544       0.00004656      -1.73112218
H        5.45942852       5.93947767       6.50511176      -1.11810082       1.87146649       0.69838425       0.00170704      -0.00032929       0.00038179      -0.00021349      -0.00072000      -0.00011154      -2.67926342
H        5.46286909       5.07735956       5.84304390       1.09235040      -3.05066790      -0.92696722       0.00016462       0.00040039       0.00036228      -0.00089060      -0.00052155      -0.00175103      -4.58057460
H        4.35529071       6.37956913       6.56332397       1.25210071      -1.73948736      -2.19215500       0.00155291       0.00057606       0.00102512       0.00084388       0.00032408      -0.00033257      -2.56565544
H        5.27250806       5.48806265       4.78287815      -3.75816114       1.85713549      -4.61002024      -0.00021115      -0.00315708      -0.00022029      -0.00032267      -0.00003906       0.00007029      -4.19885704
H        4.26540440       5.06285629       4.37469864       1.69979910      -1.26721545      -0.51065498       0.00226149       0.00180580      -0.00065292      -0.00056090       0.00036485      -0.00007551      -3.50968005
H        3.75050185       5.83731058       5.68143234       0.51403080       0.53714286       1.92475872       0.00063313       0.00058624       0.00179393       0.00043294       0.00135649       0.00052431      -3.10910822
H        6.28415358       5.81116982       4.42538174       0.22197866       0.72990592      -2.94064241       0.00040909      -0.00044668      -0.00114784       0.00006223       0.00009495       0.00025688      -1.67645725
H        3.18350348       6.36809657       3.61362110       0.30029794      -0.43402397       0.37587711       0.00016958       0.00031969       0.00025844      -0.00021784       0.00015935      -0.00018572      -0.10167802
H        4.46917434       5.07449116       5.42140879       0.26370107      -4.36702967       2.42156854      -0.00435161      -0.00474867      -0.00435060      -0.00106455      -0.00125416      -0.00032944      -4.70527813
H        6.17765360       4.87911796       4.99168104       7.82834221       3.01619617       4.67143348      -0.00354037       0.00009003       0.00116445       0.00041776      -0.00049140      -0.00226848      -2.88992239
H        3.44452961       4.87436220       5.13107088      -1.89976987       1.10314369      -1.51152989      -0.00070214       0.00070364       0.00153251       0.00091865      -0.00043832       0.00038267      -2.74488274
H        5.23374346       4.44093189       4.95817443      -6.47660495      -8.13782170       3.61558157      -0.00372057      -0.00351099      -0.00077263      -0.00074616       0.00025263      -0.00292795      -3.60267703
H        5.96475939       5.96835711       5.45277605       0.40795782       0.97061438       5.40244377       0.00029146       0.00055892      -0.00112679       0.00000833      -0.00092218      -0.00082600      -3.09105685
H        3.58535429       4.18529134       4.19539513       0.73811214       1.72822415       0.26756231       0.00092013       0.00069217       0.00030465       0.00083032      -0.00034654       0.00015966      -2.10135946
H        6.14905352       4.09047169       5.94088515      -3.00087183       4.57411270      -3.54097245       0.00143436       0.00220010       0.00170735      -0.00116653       0.00074433      -0.00112476      -1.25943972
H        4.19621958       4.07280200       5.09840622       2.23919049      -1.13959570      -1.21791648      -0.00049572      -0.00003756       0.00055105      -0.00072858      -0.00074727       0.00046646      -3.10440846
