20
Lattice="10.0 0.0 0.0 0.0 10.0 0.0 0.0 0.0 10.0" Properties=species:S:1:pos:R:3:forces:R:3:stresses:R:6:energies:R:1 energy=-69.60349701421812 stress="3.293245705280732e-05 -7.605211593374623e-06 -5.526815225074695e-06 -7.605211593374623e-06 -1.70252766284358e-05 -2.2131590647898866e-06 -5.526815225074695e-06 -2.2131590647898866e-06 8.440397695003593e-06" free_energy=-69.60349701421812 pbc="F F F"
H        4.85473581       5.98071494       5.50077732       0.00104690       0.00207834       0.00270335      -0.00076507       0.00060163      -0.00094660      -0.00078841      -0.00077139      -0.00031801      -4.75552175
H        4.62487039       4.92556217       4.03953482      -0.02262280      -0.00032739       0.00560290       0.00142795       0.00041315       0.00004920       0.00010592       0.00004908       0.00026057      -3.26011412
H        4.48572981       5.10057566       6.19138923      -0.00158928       0.00265976      -0.00144551       0.00018628      -0.00018917      -0.00031984      -0.00127526       0.00051707       0.00039700      -4.25411605
H        3.40914895       5.28218550       6.39352610       0.00544466       0.00344456      -0.00236749       0.00080789       0.00054046       0.00035082       0.00067832       0.00028648       0.00043892      -2.67742487
H        5.31786694       5.79639552       6.46794934       0.00007294       0.00061697       0.00010935       0.00144811       0.00021134       0.00037336       0.00035819      -0.00067526       0.00003371      -2.74255805
H        5.46580649       5.01314999       5.68854270      -0.02404180      -0.01715342      -0.00722807      -0.00200942      -0.00035320       0.00049293      -0.00027539       0.00002184      -0.00070527      -4.70552629
H        4.20877065       6.13290643       6.39933948       0.00015524      -0.00179497      -0.00153143       0.00161663      -0.00009769       0.00048238       0.00019072      -0.00006891       0.00047626      -2.72993174
H        5.38219669       5.52728635       4.64328672      -0.00788484       0.01756660      -0.01920466      -0.00094349      -0.00021787       0.00105454       0.00002516       0.00079010      -0.00005724      -4.73553256
H        4.33178725       5.89399831       4.51156532       0.00005442      -0.00131379      -0.00028810       0.00079055       0.00035322       0.00032385      -0.00006920       0.00020697       0.00024494      -3.39384769
H        3.79668105       5.69295158       5.46222267      -0.00230002      -0.00443470       0.00353355      -0.00153642       0.00031160      -0.00094639      -0.00014203       0.00107514      -0.00064055      -4.65051688
H        6.36245263       6.01274032       4.47453645       0.00073456       0.00313844      -0.00143222       0.00031627       0.00022083       0.00015375      -0.00011124      -0.00019861       0.00012571      -1.72295688
H        2.83616473       5.16528393       5.40323247      -0.00103721       0.00064874      -0.00108398       0.00040845      -0.00028091       0.00099861       0.00022849      -0.00016609      -0.00002800      -2.21728319
H        4.56093474       5.00691926       5.12158335       0.02799521       0.01217451       0.00769390      -0.00614312      -0.00515150      -0.00616038      -0.00081730      -0.00011148      -0.00058522      -5.59381398
H        6.30136420       5.01343704       4.97414133       0.00959824       0.00281208       0.00481987       0.00047091       0.00048207      -0.00004516       0.00055759       0.00013340       0.00010887      -3.19502758
H        3.71865418       4.53593135       5.60277236      -0.00284675       0.00100240      -0.00138467      -0.00063964       0.00124576       0.00083894       0.00055603      -0.00002951      -0.00006237      -3.72242432
H        5.37077071       4.41485888       4.71192511      -0.00121156      -0.02394467       0.01626553       0.00102462       0.00056759       0.00056305       0.00040652       0.00027939       0.00098244      -3.76837970
H        5.96112039       5.96564274       5.51491101       0.00288338       0.00244844       0.00723421       0.00052711       0.00004455       0.00100607       0.00061359      -0.00009653      -0.00018153      -3.23720278
H        3.61627909       5.01590669       4.58483601       0.01912182      -0.00904533       0.00296480       0.00081280       0.00078259       0.00095112       0.00012904      -0.00084401       0.00000805      -3.71890157
H        6.03560209       4.07877065       5.53723289      -0.00418730       0.00517935      -0.00455027       0.00045376       0.00039299       0.00004114      -0.00014951       0.00004442      -0.00011676      -1.76975901
H        4.25082488       4.07476027       4.68420588       0.00061419       0.00424405      -0.01041107       0.00177876       0.00010553       0.00074704      -0.00022342      -0.00044763      -0.00038912      -2.75265800
