20
Lattice="10.0 0.0 0.0 0.0 10.0 0.0 0.0 0.0 10.0" Properties=species:S:1:pos:R:3:forces:R:3:stresses:R:6:energies:R:1 energy=-69.60270056984675 stress="0.0003605478668788522 0.00017646072813587758 0.00010078632424883081 0.00017646072813587758 0.0001476525952023293 6.820079886783177e-06 0.00010078632424883081 6.820079886783177e-06 -0.00013525851204074382" free_energy=-69.60270056984675 pbc="F F F"
H        4.85665802       5.98074588       5.49886196      -0.04084017      -0.00974593      -0.01926910      -0.00073342       0.00060437      -0.00093469      -0.00078787      -0.00078000      -0.00029805      -4.75555952
H        4.62796689       4.92118826       4.04021516      -0.00513507       0.03028693       0.00048659       0.00143983       0.00041677       0.00004203       0.00011406       0.00005941       0.00026635      -3.25897932
H        4.48258249       5.10125571       6.19012925      -0.01372988       0.07883530       0.07630531       0.00020979      -0.00015254      -0.00035299      -0.00128329       0.00052899       0.00040323      -4.25026605
H        3.40618681       5.28829618       6.38793347      -0.03369649      -0.00734947      -0.00511964       0.00080044       0.00052078       0.00035419       0.00067282       0.00029424       0.00042893      -2.67951657
H        5.31457301       5.79732612       6.46850731       0.01359774      -0.01210509       0.03624813       0.00144309       0.00020912       0.00034826       0.00035647      -0.00066892       0.00004548      -2.74376698
H        5.46445994       5.01339526       5.69080379      -0.12567175      -0.05585179      -0.03205957      -0.00199079      -0.00039302       0.00047825      -0.00028124       0.00004390      -0.00069224      -4.70937666
H        4.20764621       6.13498938       6.39526871       0.02454940       0.02098739       0.00622660       0.00159203      -0.00010292       0.00047387       0.00019268      -0.00007976       0.00045846      -2.73359887
H        5.38607556       5.52337666       4.64463259      -0.05322826      -0.00472667       0.04477163      -0.00085876      -0.00017305       0.00109793       0.00004051       0.00078687      -0.00000461      -4.73725018
H        4.33672511       5.89233717       4.50780759       0.03735273       0.04098177      -0.00883754       0.00079733       0.00033173       0.00032500      -0.00005883       0.00021327       0.00023841      -3.39352913
H        3.79740131       5.69694918       5.45717939      -0.01147766      -0.06791765       0.00622149      -0.00152092       0.00033706      -0.00094579      -0.00016797       0.00107635      -0.00062916      -4.64803942
H        6.36796357       6.00851363       4.47988732      -0.04429472      -0.04859938       0.01469477       0.00034053       0.00023914       0.00015239      -0.00012086      -0.00020219       0.00013620      -1.72297731
H        2.83506864       5.17219560       5.39591365       0.02778544       0.01197674       0.02927385       0.00042279      -0.00027562       0.00099719       0.00023083      -0.00015579      -0.00002667      -2.21743754
H        4.56016011       5.00689789       5.12148438       0.15279941       0.05860256      -0.03346810      -0.00608183      -0.00515236      -0.00619614      -0.00082996      -0.00009787      -0.00054086      -5.59462306
H        6.30322425       5.00926448       4.98050482      -0.06651265       0.00821939      -0.02684922       0.00050350       0.00053316      -0.00003852       0.00056424       0.00014783       0.00013132      -3.19240455
H        3.71421164       4.53938870       5.59986025       0.01082271       0.02992219       0.02280377      -0.00063330       0.00125743       0.00081369       0.00054693      -0.00002335      -0.00004734      -3.72227179
H        5.36946278       4.41096812       4.71748887       0.09243315       0.03433841      -0.03801398       0.00103517       0.00057647       0.00053132       0.00041659       0.00027636       0.00102350      -3.76725554
H        5.96326217       5.96422790       5.51888629      -0.04787373      -0.04872384      -0.06996204       0.00054954       0.00006345       0.00102992       0.00063780      -0.00007835      -0.00018576      -3.23429571
H        3.61741599       5.01798857       4.58119373       0.06533512      -0.07304385      -0.01768911       0.00082674       0.00079704       0.00093205       0.00013330      -0.00083572      -0.00001670      -3.71852404
H        6.03153263       4.07685280       5.54447386       0.04496504      -0.03038280       0.04558272       0.00043782       0.00038241       0.00002170      -0.00014332       0.00002880      -0.00010590      -1.76984838
H        4.24918452       4.07382010       4.68647817      -0.02718036       0.04429580      -0.03134656       0.00178098       0.00012825       0.00073506      -0.00022607      -0.00043330      -0.00040812      -2.75317994
