20
Lattice="10.0 0.0 0.0 0.0 10.0 0.0 0.0 0.0 10.0" Properties=species:S:1:pos:R:3:forces:R:3:stresses:R:6:energies:R:1 energy=-27.550753021392897 stress="0.008771150840730565 -0.0014979764347357175 -0.00484153923256549 -0.0014979764347357175 0.00809032721692304 -0.0012069659629230847 -0.00484153923256549 -0.0012069659629230847 0.007947567421354837" free_energy=-27.550753021392897 pbc="F F F"
H        5.09875243       6.18925473       6.55430296      -1.30561950      -1.18158656      -0.11898340       0.00077074       0.00062640       0.00017432       0.00010055      -0.00031464       0.00006318      -2.53416136
H        4.30610390       3.76407545       4.09691403      -4.28388254      -0.32077076       1.83739868       0.00118438       0.00048576       0.00074301      -0.00027739      -0.00071195      -0.00067079      -1.93853902
H        4.24528457       5.64909890       7.07827772       1.36900631      -0.55181529      -1.83338180       0.00139631       0.00051108       0.00114511       0.00012663      -0.00088666       0.00026287      -2.59714895
H        3.28322949       5.17607822       7.48816279       1.28726489       0.90035665      -0.96780206       0.00069369       0.00042070       0.00037275      -0.00025115      -0.00037413       0.00034769      -1.07939411
H        6.00347794       5.92139511       7.15200542      -0.51774368      -0.27429323      -0.13909095       0.00052513       0.00007743       0.00009155       0.00010228       0.00009186       0.00012366      -1.11628455
H        5.67074088       5.23170883       6.32766322       1.32429659       0.76043171       1.13837226      -0.00056076       0.00048036       0.00021089       0.00021417      -0.00059194      -0.00024130      -1.59891220
H        4.11162662       6.71173122       6.72328546       0.04475198      -1.87209384      -0.15003406       0.00069489       0.00101235       0.00016790       0.00009037      -0.00011131      -0.00003798      -1.65306695
H        5.33893873       5.41998574       3.39812952      -1.84821249      -1.05555296      -0.46583815      -0.00007827       0.00006027      -0.00000249      -0.00032264      -0.00053618      -0.00004510      -1.14004181
H        3.89363606       4.83627805       4.09592168       1.27852870      -2.09321857       0.39437284       0.00129468       0.00124788       0.00036680      -0.00030306      -0.00023186       0.00008628      -1.62425599
H        3.24967921       5.96837872       6.68534180       1.17330856       0.13207697      -0.15686197       0.00079512       0.00040311       0.00018305       0.00004363      -0.00023644       0.00011718      -1.62819777
H        6.82948968       6.54256475       3.16196447       0.48623592       0.71839675       0.69077455      -0.00004866      -0.00008285       0.00055479       0.00032753       0.00021327      -0.00007909      -1.01851229
H        2.89907797       7.05919442       3.15130591       0.02113192      -0.03130820       0.01142660       0.00001787       0.00003280       0.00000504      -0.00001240       0.00000643      -0.00002051      -0.00382954
H        4.62632985       5.30992130       6.02258770      -3.47044336       1.69467668       1.63705316      -0.00035303       0.00089714       0.00151560       0.00083542      -0.00080902      -0.00008111      -1.77117999
H        6.20001049       5.93578017       3.83652194       0.29316209      -0.38409652       1.45969570      -0.00079437      -0.00038209      -0.00040778      -0.00011107      -0.00023720      -0.00054049      -1.53703452
H        3.44755530       3.48321556       5.94565020      -0.18111904       0.70444406      -0.15555934       0.00007003       0.00025690       0.00041613      -0.00026816       0.00012461       0.00009318      -0.66531904
H        5.01515580       4.60397760       4.09902219       0.01135646       1.71081377       0.20460425       0.00061590      -0.00016408       0.00025427      -0.00004855      -0.00012978      -0.00025957      -1.61852049
H        6.83962870       6.71912411       4.30476306       0.17423584       0.04462106      -1.21409870      -0.00001642      -0.00005575       0.00079890       0.00005770      -0.00004460      -0.00004486      -0.99951174
H        3.16769903       4.01742495       4.43289418       4.24845909      -1.32129952       0.55730024       0.00203781       0.00109799       0.00091226      -0.00058119      -0.00013531      -0.00041340      -1.51596460
H        6.86664534       2.93385312       6.41000203      -0.01400564       0.02691096      -0.00096430       0.00000837       0.00003092       0.00000004      -0.00000111       0.00000058      -0.00001609      -0.00383758
H        3.79869959       3.15693680       4.94279463      -0.09071212       2.39330686      -2.72838354       0.00051775       0.00113399       0.00044543      -0.00092854       0.00007274      -0.00014172      -1.50704051
