20
Lattice="10.0 0.0 0.0 0.0 10.0 0.0 0.0 0.0 10.0" Properties=species:S:1:pos:R:3:forces:R:3:stresses:R:6:energies:R:1 energy=-48.865191253306506 stress="-0.01615086507680788 0.001850941773852211 0.005688516239152421 0.001850941773852211 0.008821307425122049 0.002343490016962181 0.005688516239152421 0.002343490016962181 -0.022635265439487524" free_energy=-48.865191253306506 pbc="F F F"
H        4.80894528       6.01112370       5.75096727      18.86624683       0.79912691      -7.16290995      -0.00574355      -0.00119302      -0.00312422      -0.00121236       0.00213701      -0.00092186      -3.53878610
H        4.42403753       4.11977633       3.90758190      13.90478695      -4.39719193      -0.82532453      -0.00512117      -0.00071669       0.00036554       0.00017547       0.00166312       0.00246211      -1.88533134
H        4.47407735       5.25156598       6.46921416       2.13094307      -3.03539430       1.43880730      -0.00199425      -0.00101281      -0.00192362      -0.00050853       0.00042637      -0.00042541      -3.53759751
H        3.49746692       5.55094677       6.79471316      -2.09448096       2.29610610       1.00909649      -0.00078253       0.00044624       0.00009380      -0.00002444       0.00029516       0.00121780      -1.64700103
H        5.37288394       5.80708838       6.72345986       0.29345978       2.18502740      -1.61132320       0.00046817      -0.00009807       0.00137291      -0.00018925      -0.00000274      -0.00086834      -2.27501353
H        5.46880689       5.07038210       5.88755631       3.81175693       0.90987518       1.53757887       0.00072302       0.00178898       0.00032796       0.00069115      -0.00213407       0.00000389      -3.37074641
H        4.35821451       6.35237239       6.63278234      -4.49326280      -0.15198471       6.31999511       0.00078949       0.00068233      -0.00245154      -0.00082059       0.00176501       0.00095389      -2.43645806
H        5.28942503       5.49579287       4.90325930       6.79327166       0.90367316      -5.75368160       0.00176600       0.00129155      -0.00127726       0.00148383       0.00156672      -0.00008571      -3.77319595
H        4.31889884       5.10232512       4.43064067       3.24486008       1.49471785     -14.13364114      -0.00026010       0.00109332      -0.00723881       0.00057613      -0.00025306      -0.00050551      -3.30568855
H        3.79216683       5.84037295       5.76802355      -8.79732506      -2.32414563       0.54866601      -0.00506946       0.00044571       0.00059228       0.00042826       0.00023275      -0.00188845      -3.06091644
H        6.14215277       5.95834813       4.31425419      -1.06073939      -2.27607046      -2.38017271       0.00069557       0.00083423      -0.00142709      -0.00083103      -0.00051295       0.00009491      -1.57143849
H        2.98635181       6.74652485       3.30474990       0.05370949      -0.12070500       0.08865178       0.00002620       0.00011168       0.00006833      -0.00007127       0.00003441      -0.00004528      -0.02357091
H        4.50454944       5.01102447       5.42851897      -7.28400560      -8.10268424      10.86104202      -0.00309383      -0.00045245      -0.01071451       0.00160569      -0.00138948      -0.00153310      -4.29266560
H        6.48763905       5.04863946       4.95170804      -5.06119082       1.73845083       0.39087745       0.00294740       0.00102233       0.00099937      -0.00037208      -0.00048386      -0.00050939      -1.76609243
H        3.43972141       5.07040051       5.06426550      -1.82430673      -1.10007838      -0.02961466      -0.00021809      -0.00019519       0.00086471       0.00041147       0.00089529       0.00001629      -2.75808263
H        5.10767176       4.20541102       4.88267442      -1.83996365       6.64601471      -0.48702993       0.00200078       0.00360640       0.00215566       0.00068455       0.00107475      -0.00032237      -2.66127720
H        6.26233683       6.06220018       5.37856557      -4.36412931      -2.40061546       4.77105146       0.00263783       0.00111996      -0.00128063      -0.00036471      -0.00058580       0.00126893      -1.95431067
H        3.48019515       4.51924307       4.01845983     -12.93678397       5.74650270       2.34447735      -0.00577543      -0.00088487       0.00076459       0.00033384       0.00050635       0.00217015      -1.85692352
H        6.68030080       3.28235748       6.38126812      -0.12108458       0.19193822      -0.10896733       0.00008586       0.00017181       0.00006985      -0.00008202       0.00004932      -0.00009530      -0.03574014
H        3.99591945       4.12408200       4.91484783       0.77823808       0.99743704       3.18242122      -0.00023277       0.00075985      -0.00087258       0.00042938       0.00040419       0.00086367      -3.11435474
