20
Lattice="10.0 0.0 0.0 0.0 10.0 0.0 0.0 0.0 10.0" Properties=species:S:1:pos:R:3:forces:R:3:stresses:R:6:energies:R:1 energy=-27.776181601245508 stress="0.006631771213169907 -0.0007142110015512055 -0.004255368748744674 -0.0007142110015512055 0.007516239652307353 -2.3936298756007874e-05 -0.004255368748744674 -2.3936298756007874e-05 0.00786545574235673" free_energy=-27.776181601245508 pbc="F F F"
H        5.08624485       6.16724691       6.55920693      -0.54402232       0.55371436      -1.11244526      -0.00041085      -0.00007478      -0.00029994       0.00016771      -0.00027178      -0.00009512      -2.53870668
H        4.30134330       3.74915530       4.07901146      -3.04215806       1.09347973       1.73064238       0.00147374       0.00092740       0.00068406      -0.00018134      -0.00069594      -0.00029494      -1.95356544
H        4.25166264       5.64165808       7.06494548       0.90591817      -1.55810777      -0.88508957       0.00055582       0.00018957       0.00091728       0.00040351      -0.00065433      -0.00000492      -2.60635941
H        3.29605898       5.18243575       7.49205947       1.14366266       0.93952040      -1.05507037       0.00062395       0.00044772       0.00042497      -0.00028866      -0.00035254       0.00031097      -1.08416495
H        5.97938709       5.93725083       7.16305947       0.13732828      -0.85817869       0.00230485       0.00019954       0.00018911       0.00009874       0.00031953      -0.00009249       0.00027925      -1.11451341
H        5.66847305       5.22859275       6.32986774       1.27502939       0.76270500       1.41725919      -0.00036603       0.00041736       0.00038102       0.00031751      -0.00047447      -0.00009464      -1.61030722
H        4.11244456       6.70278018       6.71464891       0.31212291      -1.07064299      -0.10028615       0.00027065       0.00071810       0.00016557       0.00008460      -0.00009725      -0.00017228      -1.66306763
H        5.33346773       5.40665776       3.38488311      -0.68093613      -0.39637489       0.18667293       0.00043195       0.00026502       0.00014592      -0.00019104      -0.00029324       0.00026904      -1.15089849
H        3.89854784       4.82273330       4.10148165       1.37233019      -1.15921524       0.07916323       0.00072042       0.00090453       0.00033443      -0.00017190      -0.00012146      -0.00010263      -1.64386345
H        3.26663295       5.96606198       6.67598679       0.04922078      -0.33054697      -0.30666173       0.00029173       0.00022396       0.00019823       0.00003067      -0.00036630      -0.00002337      -1.63796223
H        6.82375786       6.53462663       3.17284726       0.18831551       0.39519371       0.67376235       0.00004840       0.00000210       0.00046332       0.00021336       0.00011899       0.00001354      -1.02838817
H        2.89963690       7.05551277       3.15279374       0.02079804      -0.03062557       0.01105237       0.00001769       0.00003218       0.00000489      -0.00001206       0.00000622      -0.00002025      -0.00367136
H        4.62686457       5.31249928       6.00254838      -3.37815604       1.14729626       1.41818770      -0.00020199       0.00068181       0.00149326       0.00071275      -0.00085719      -0.00021307      -1.78573792
H        6.19975963       5.92278133       3.85928693      -0.41775934      -0.58629167       0.70888339      -0.00010712      -0.00001045      -0.00013898       0.00000405      -0.00003809      -0.00005367      -1.55696473
H        3.43966588       3.51624462       5.93706592      -0.07803281       0.64690910      -0.53881912       0.00009184       0.00028426       0.00062976      -0.00023221       0.00007651       0.00008262      -0.68103065
H        5.01128663       4.61701875       4.11819688      -0.45926503       0.40490854       0.16944890       0.00070188       0.00037756       0.00029360      -0.00006582      -0.00014264       0.00027681      -1.64315423
H        6.84337591       6.72480087       4.30302764      -0.02707886      -0.15925446      -1.03443829       0.00004404       0.00003477       0.00063857       0.00009308       0.00000539       0.00003095      -1.00550061
H        3.17899257       4.03353358       4.44495462       3.51339697      -2.11888621       0.84204742       0.00175234       0.00078396       0.00091281      -0.00042381      -0.00006095      -0.00070266      -1.53952697
H        6.86542338       2.93734298       6.41017962      -0.01425409       0.02728574      -0.00095641       0.00000853       0.00003126       0.00000004      -0.00000110       0.00000057      -0.00001633      -0.00392067
H        3.80873527       3.17104409       4.94145891      -0.27646021       2.29711163      -2.20565782       0.00048524       0.00109080       0.00051790      -0.00080277       0.00005563      -0.00018351      -1.52487738
