20
Lattice="10.0 0.0 0.0 0.0 10.0 0.0 0.0 0.0 10.0" Properties=species:S:1:pos:R:3:forces:R:3:stresses:R:6:energies:R:1 energy=-19.41784297731259 stress="-0.0021840545791968003 -0.0022526697919509195 -0.0005349810477298026 -0.0022526697919509195 0.0025870647629477493 -0.001780401845819256 -0.0005349810477298026 -0.001780401845819256 0.0022414243398854645" free_energy=-19.41784297731259 pbc="F F F"
H        5.17561156       5.94480395       7.09981341       4.48439773       1.35579346       1.49663376       0.00029310      -0.00030987      -0.00037984      -0.00046067      -0.00112681      -0.00096133      -1.88020731
H        3.94028125       3.46416498       4.20378183      -1.54543101      -0.24743199       1.47728689       0.00106519       0.00084301       0.00076781      -0.00058352      -0.00014748      -0.00019759      -1.08173723
H        4.10691953       5.87414601       6.86231759      -4.34429870      -0.26095605       0.49248620       0.00011317       0.00043538       0.00002791      -0.00034887      -0.00031211       0.00034198      -2.48568841
H        3.24235826       5.20821606       7.29394381       1.73077445       1.71903223      -1.14033088       0.00093582       0.00082294       0.00031232      -0.00038232      -0.00041309       0.00054416      -1.08512912
H        6.30360941       5.81123950       7.20396664      -1.81787610      -0.58437902      -1.60547858       0.00094517       0.00017723       0.00075558       0.00032701       0.00046448       0.00013808      -1.04873603
H        5.89895520       5.36419778       6.21326445       8.75763938       2.46616561       2.03056341      -0.00424739       0.00047547       0.00140303       0.00079687       0.00006544      -0.00071120      -1.21729302
H        3.68406576       6.91984679       6.92865301       1.14246795      -0.20964428       0.34466434       0.00014090       0.00033780      -0.00001409      -0.00015877      -0.00011844      -0.00050864      -1.12092338
H        5.58314454       5.56578791       3.23992024       1.70960027       2.63914474      -1.12012923       0.00052376      -0.00064254      -0.00031196       0.00058831       0.00022100       0.00010027      -0.98967635
H        2.86147744       4.87990154       4.05954364       0.30827169      -0.18839377       0.02105548       0.00020181       0.00024275       0.00004298      -0.00004223       0.00001671      -0.00018229      -0.57154796
H        3.01427317       6.09237051       6.62884384       0.39486646      -1.34877303       0.06958474       0.00042367      -0.00016123       0.00007622      -0.00022363       0.00001301      -0.00045542      -1.52275193
H        7.28267792       6.89214528       2.89289871      -0.38255531      -0.31774603       0.42001345       0.00016673       0.00014895       0.00026113      -0.00005093      -0.00010964       0.00014812      -0.54783941
H        2.89300450       7.16648990       3.10742287      -0.00052914      -0.03837759       0.01598018       0.00000001       0.00004388       0.00000761      -0.00001827      -0.00000025       0.00000060      -0.00587988
H        4.86298606       5.28155821       6.30655267     -10.33414208      -3.19855118      -1.82979587      -0.00481735      -0.00072802      -0.00099143      -0.00085864       0.00018390      -0.00059030      -1.45249165
H        6.57147523       6.14156695       3.34989984      -0.78085777      -0.23060361       0.08830980       0.00069649       0.00048639       0.00029267       0.00009544       0.00003568       0.00052875      -1.07392840
H        3.58614118       2.90453119       6.14865764      -0.35514515       0.37043167       1.10735479      -0.00002415       0.00006747      -0.00046451      -0.00019090       0.00019149       0.00003188      -0.53504753
H        5.30770786       4.67453381       3.80573356      -0.77484223      -2.02998481       1.35006188       0.00022533      -0.00064492      -0.00025556       0.00049946       0.00008936      -0.00004077      -0.57035209
H        6.98134933       7.10095153       4.78159644      -0.09551042      -0.30084490      -0.54493689       0.00004722       0.00015182       0.00050370       0.00016855       0.00002881       0.00007177      -0.10635950
H        2.82868958       3.78008426       4.27171565       1.77426261      -0.86782849       0.27023098       0.00098549       0.00020114       0.00018350      -0.00014993       0.00011245      -0.00039978      -1.07380130
H        6.90090533       2.84750373       6.40971668      -0.00808251       0.02030160      -0.00158474       0.00000405       0.00002555       0.00000016      -0.00000199       0.00000079      -0.00001017      -0.00223124
H        3.86612848       2.71593782       5.09926838       0.13698990       1.25264543      -2.94196973       0.00013692       0.00061388       0.00002421      -0.00078537       0.00026971      -0.00010079      -1.04622126
