20
Lattice="10.0 0.0 0.0 0.0 10.0 0.0 0.0 0.0 10.0" Properties=species:S:1:pos:R:3:forces:R:3:stresses:R:6:energies:R:1 energy=-18.184239921043222 stress="0.005534399098217184 -0.0014076881654517045 -0.0017134761323645677 -0.0014076881654517045 0.0036099068833423094 -0.0012977951432581879 -0.0017134761323645677 -0.0012977951432581879 0.0038629979700706973" free_energy=-18.184239921043222 pbc="F F F"
H        5.65408618       6.16947400       7.04981206      -1.35750445      -2.34419651      -1.49589278       0.00127004       0.00095978       0.00047457       0.00059007       0.00032930       0.00046144      -1.38443315
H        3.91631253       3.42904526       4.21308819      -1.47291719      -0.78568378       1.80234256       0.00097737       0.00099253       0.00094224      -0.00081039      -0.00012687      -0.00016401      -0.99982632
H        3.89054519       5.92183021       6.88865710       1.69200680      -0.00191919      -0.69714725       0.00085812      -0.00045277       0.00003084       0.00022670       0.00003447      -0.00052848      -2.04645406
H        3.14736300       5.14983547       7.15045983      -0.10948708      -1.43115913       0.46293803      -0.00001935      -0.00044194      -0.00005781       0.00024879      -0.00008101      -0.00011076      -1.09690033
H        6.59062545       5.54139204       7.13180738       0.33657370       0.44622689       1.09099309       0.00009635       0.00008935      -0.00048151      -0.00010928      -0.00032399      -0.00016961      -1.02960086
H        5.91991281       5.37438712       6.27585909      -2.43455625       0.35844301      -0.34291462       0.00049573       0.00029049      -0.00020033       0.00012918      -0.00068713      -0.00015702      -1.49561172
H        3.47699802       6.95449962       6.84928255       0.70238225       1.13619872       0.15213163      -0.00019669      -0.00035524       0.00000259      -0.00007780      -0.00006867      -0.00028304      -1.06072492
H        5.68974510       5.62868301       3.19268836      -3.40422010      -3.16744895       0.93233888      -0.00103925       0.00061271       0.00033380      -0.00058331      -0.00032424      -0.00020817      -0.92293069
H        2.72729874       4.88065841       4.06445091       0.16071183       0.49633890      -0.07254340       0.00014641      -0.00016049       0.00002163       0.00001812       0.00000742      -0.00010498      -0.54854841
H        2.77925218       6.10780161       6.73236551      -0.29825241      -0.35808907      -0.40731885       0.00017602      -0.00078323      -0.00005742       0.00011141      -0.00006239      -0.00030536      -1.49654949
H        7.31462623       6.92424701       2.81205537      -0.21397630      -0.18455667       0.20066743       0.00011431       0.00010071       0.00013525      -0.00002579      -0.00005701       0.00010081      -0.53416067
H        2.89571970       7.19065972       3.09710438      -0.00254504      -0.03490682       0.01461774       0.00000021       0.00004032       0.00000707      -0.00001688      -0.00000123       0.00000294      -0.00522591
H        4.80344287       5.32318459       6.54489324       1.50092787       2.14183379       1.12334236       0.00233716       0.00089336       0.00039864       0.00047285       0.00000428       0.00037246      -1.43943023
H        6.65110255       6.12848124       3.25190002       2.74473473       1.52283587       0.27100953      -0.00119645      -0.00018317       0.00013475      -0.00001790      -0.00010000      -0.00055164      -1.01612118
H        3.59453655       2.81906114       6.21047315       0.05721101       0.05925280      -0.41128089       0.00002352       0.00008354       0.00031402      -0.00001748      -0.00003111      -0.00000694      -0.53140783
H        5.26324727       4.65434551       3.77412553       0.63462670       1.75514909      -1.02155459       0.00045214       0.00110578       0.00039840      -0.00060119      -0.00031555       0.00060257      -0.50434005
H        7.02094569       7.21172434       4.91807086      -0.05533374      -0.16301276      -0.21549683       0.00003167       0.00009824       0.00029003       0.00006576      -0.00000491       0.00004530      -0.05425421
H        2.81658815       3.78330370       4.21682184       1.63646667      -1.37301424       0.32756202       0.00087147      -0.00014372       0.00013134      -0.00008438       0.00010414      -0.00032613      -1.04743767
H        6.90638444       2.82159865       6.40604534      -0.00924153       0.03488983       0.00320694       0.00000395       0.00004584       0.00000158       0.00000444      -0.00000018      -0.00001195      -0.00310147
H        3.83302895       2.61576508       5.12755017      -0.10760748       1.89281822      -1.71700100       0.00013166       0.00081781       0.00104331      -0.00082074      -0.00000881      -0.00006514      -0.96718074
