20
Lattice="10.0 0.0 0.0 0.0 10.0 0.0 0.0 0.0 10.0" Properties=species:S:1:pos:R:3:forces:R:3:stresses:R:6:energies:R:1 energy=-69.60258045620188 stress="0.0003376496589489444 0.00015198340202866422 0.00010503321562304844 0.00015198340202866422 0.0001422631422104161 4.2019413461385936e-05 0.00010503321562304844 4.2019413461385936e-05 -0.00015247077288483248" free_energy=-69.60258045620188 pbc="F F F"
H        4.85768940       5.98071287       5.49845163      -0.02453470      -0.01118831      -0.03274744      -0.00074450       0.00060583      -0.00092512      -0.00078461      -0.00078096      -0.00029918      -4.75553478
H        4.62734322       4.91982430       4.04064440      -0.00310293       0.05334104      -0.02087488       0.00143895       0.00041644       0.00003121       0.00011964       0.00005997       0.00026347      -3.25886008
H        4.48240681       5.10209501       6.19016964      -0.00837178       0.07627149       0.09240176       0.00021021      -0.00015733      -0.00035929      -0.00128423       0.00052652       0.00040502      -4.25026289
H        3.40634171       5.29113852       6.38795529      -0.04380192      -0.02147071       0.00426351       0.00080051       0.00051827       0.00034933       0.00067695       0.00029890       0.00042542      -2.67943469
H        5.31535218       5.79726960       6.46822398       0.02033310      -0.01055448       0.03250035       0.00144223       0.00020817       0.00035008       0.00035525      -0.00067007       0.00004660      -2.74366015
H        5.46421512       5.01281908       5.69099317      -0.11609374      -0.07999142      -0.05657467      -0.00198184      -0.00038241       0.00048311      -0.00028053       0.00004580      -0.00069456      -4.70989004
H        4.20912744       6.13627798       6.39501599       0.02233051       0.03244656       0.00669590       0.00158837      -0.00010895       0.00047330       0.00019233      -0.00008103       0.00045590      -2.73387145
H        5.38623638       5.52200037       4.64426869      -0.03097003      -0.01554206       0.06010069      -0.00086281      -0.00017143       0.00110315       0.00004301       0.00078980      -0.00000558      -4.73713043
H        4.33760167       5.89206866       4.50729929       0.03021561       0.05540646      -0.00996521       0.00079011       0.00032638       0.00033022      -0.00005340       0.00021141       0.00023832      -3.39367090
H        3.79829312       5.69844023       5.45713246      -0.03983955      -0.06426763      -0.02556055      -0.00153575       0.00033444      -0.00095082      -0.00016549       0.00107804      -0.00062553      -4.64798313
H        6.36854987       6.00572417       4.47850444      -0.04675166      -0.05007983       0.03555584       0.00033951       0.00023977       0.00016352      -0.00012168      -0.00020605       0.00013477      -1.72297968
H        2.83502539       5.17526742       5.39587256       0.02421043       0.02009263       0.03778947       0.00042135      -0.00027560       0.00099610       0.00023193      -0.00015251      -0.00002438      -2.21751383
H        4.55979056       5.00698913       5.12166823       0.20030655       0.05322997      -0.02362906      -0.00608084      -0.00515995      -0.00621025      -0.00082666      -0.00009313      -0.00054572      -5.59403060
H        6.30304697       5.00722353       4.98066114      -0.08623854       0.00542890      -0.03003021       0.00051270       0.00053743      -0.00003678       0.00055875       0.00014906       0.00013126      -3.19260142
H        3.71310927       4.54124913       5.60020113      -0.00088060       0.01542722       0.05210813      -0.00064222       0.00125250       0.00080286       0.00055132      -0.00002012      -0.00004513      -3.72245579
H        5.36853749       4.40967850       4.71811541       0.07361256       0.04862176      -0.03183116       0.00104427       0.00057794       0.00052857       0.00042167       0.00026916       0.00102301      -3.76714198
H        5.96425639       5.96287265       5.51809269      -0.04912433      -0.04867912      -0.08268325       0.00055211       0.00006422       0.00104358       0.00063623      -0.00008235      -0.00018318      -3.23416570
H        3.61699904       5.01916374       4.58145431       0.07147131      -0.08196499      -0.02537435       0.00082386       0.00079889       0.00092621       0.00013938      -0.00083146      -0.00002260      -3.71862561
H        6.03027096       4.07523548       5.54502070       0.04102965      -0.00856511       0.05422561       0.00043875       0.00039348       0.00001940      -0.00014209       0.00002455      -0.00010983      -1.76981208
H        4.24756867       4.07392722       4.68776543      -0.03379993       0.03203763      -0.03637047       0.00178268       0.00012415       0.00072915      -0.00022576      -0.00043049      -0.00041609      -2.75295521
