20
Lattice="10.0 0.0 0.0 0.0 10.0 0.0 0.0 0.0 10.0" Properties=species:S:1:pos:R:3:forces:R:3:stresses:R:6:energies:R:1 energy=-58.24228501414284 stress="-0.006958889288774264 -0.008799296408079594 -0.009908116961754582 -0.008799296408079594 -0.010253886016202545 -0.0037199910566375178 -0.009908116961754582 -0.0037199910566375178 -0.002761991526930165" free_energy=-58.24228501414284 pbc="F F F"
H        4.86863788       6.06245741       5.57596198       0.95715847       1.64372342       1.75617400       0.00015487      -0.00030485      -0.00002900      -0.00114212      -0.00064030      -0.00082223      -4.11173360
H        4.69557086       4.16024852       4.09737520      -2.69726999       0.63930707      -1.90070799       0.00038801       0.00081920      -0.00066182       0.00028301      -0.00104726      -0.00006994      -2.32494577
H        4.55545300       5.30791594       6.49552047       3.25868608       0.00172943      -2.09077561       0.00144839      -0.00029041       0.00067588      -0.00112372      -0.00031791       0.00046107      -3.57018019
H        3.55205832       5.63106328       6.83478261       0.06076658       0.28600110       0.15277680       0.00024178       0.00024398       0.00017620       0.00021752      -0.00017773       0.00028433      -1.69409483
H        5.48545495       5.97570270       6.46918909      -1.30577219       0.96640480       0.47311955       0.00203042      -0.00007902       0.00053643       0.00000703      -0.00101056       0.00007784      -2.63593341
H        5.48148855       5.08016792       5.84543875      -0.19407330       0.13345236      -0.18786604      -0.00035508      -0.00074778       0.00033806      -0.00040045      -0.00093124      -0.00087577      -4.62531563
H        4.35550659       6.37627693       6.53324960       4.26215592       3.02076094       2.59326900       0.00091840      -0.00120745      -0.00067803      -0.00050584      -0.00138995      -0.00085547      -2.53819156
H        5.28388905       5.43185282       4.79184373      -7.74136143       0.99923952      -9.87331545      -0.00267058      -0.00453895      -0.00167036      -0.00069849      -0.00110408      -0.00055880      -4.14104120
H        4.24915670       5.14849652       4.38999944       0.59682753      -1.81063100       0.96155990       0.00226735       0.00229470       0.00051217      -0.00048615       0.00036344      -0.00017539      -3.52207841
H        3.79997555       5.85709519       5.78108733      -2.70594306      -4.04616149      -4.57616755      -0.00020170       0.00011813      -0.00053081      -0.00050111      -0.00013233      -0.00070115      -3.19935732
H        6.27896698       5.69694546       4.32756828      -0.85694660       1.14093341      -0.77455328       0.00072782      -0.00046481      -0.00005661       0.00031779      -0.00033811       0.00022179      -1.69182346
H        3.26117282       6.23457430       3.72434480       0.66077890      -0.92734548       0.72702830       0.00034442       0.00060399       0.00042110      -0.00038538       0.00028444      -0.00036070      -0.20883459
H        4.48255773       5.07088241       5.44327551      -3.30355531      -2.16768297       1.19063460      -0.00378326      -0.00415282      -0.00370101      -0.00077565      -0.00068324      -0.00049768      -4.79933523
H        6.16178426       4.81877780       4.96680797       9.86224636       3.42549460       2.97431319      -0.00447188      -0.00085113       0.00022455       0.00158901      -0.00033875      -0.00180306      -2.94679737
H        3.43036705       4.93949520       5.15472509      -0.17992170       2.15943172      -1.37913607       0.00012025       0.00079121       0.00210627       0.00111588      -0.00022431       0.00079518      -2.72903465
H        5.21346810       4.39489714       5.00568484      -5.71304980      -9.47591483       5.31860269      -0.00421540      -0.00353324      -0.00100781      -0.00040767       0.00056933      -0.00268200      -3.68590998
H        5.98538939       5.93703214       5.37715330       4.56391636       3.14290666       6.66434735      -0.00089071       0.00014742      -0.00046344      -0.00061867      -0.00244219      -0.00179565      -2.98004337
H        3.56989702       4.26848723       4.16960034      -0.08779576       2.51507848       0.29793420       0.00052581       0.00091368       0.00030049       0.00102588      -0.00038372       0.00030376      -2.08351167
H        6.04056912       4.12749859       5.83965454      -1.81603187       0.45421971      -1.89911772       0.00109582       0.00035778       0.00092343      -0.00037654       0.00084819      -0.00031912      -1.68844101
H        4.14039768       4.11011023       5.08424802       2.37918481      -2.10094745      -0.42811986      -0.00063361      -0.00037350      -0.00017769      -0.00085432      -0.00081184       0.00057369      -3.06568176
