20
Lattice="10.0 0.0 0.0 0.0 10.0 0.0 0.0 0.0 10.0" Properties=species:S:1:pos:R:3:forces:R:3:stresses:R:6:energies:R:1 energy=-43.721777706701644 stress="0.010826861798072766 -0.0017416508090778281 -0.00933904752326184 -0.0017416508090778281 -0.002195866388717399 -0.0038121165186615056 -0.00933904752326184 -0.0038121165186615056 0.004227078327513384" free_energy=-43.721777706701644 pbc="F F F"
H        4.99726260       5.89815428       5.80993020       1.01722648       7.02547726       4.43844822       0.00161931      -0.00304118       0.00115466      -0.00160756      -0.00193939      -0.00179916      -2.55686802
H        4.29659981       4.07246845       4.00111588      -0.02602026       1.58929787       1.36416611       0.00069098       0.00079986       0.00072819       0.00046797      -0.00013402       0.00021443      -2.22383066
H        4.46624590       5.19727915       6.61748306       1.18416928      -1.35349196       1.10436129      -0.00160600      -0.00028478       0.00052288       0.00023773      -0.00114250       0.00116769      -3.51516824
H        3.47426106       5.38586879       7.14549617       1.15489300      -0.25478771      -2.24415489       0.00069800      -0.00008492       0.00133839      -0.00006265      -0.00053845      -0.00014351      -1.61859935
H        5.23954343       5.94572760       6.88692235       0.60205654      -1.46165120      -0.27110435       0.00033136       0.00074829       0.00010323       0.00060238      -0.00011973      -0.00019767      -2.12447286
H        5.48165160       4.96550216       6.27119472      -1.50020440       2.27708456      -2.32681838       0.00074283       0.00151490       0.00175688       0.00035414       0.00100293      -0.00037014      -2.18290063
H        4.15772153       6.23326533       6.92174771       1.66952918       0.20028114      -1.03864500       0.00019137      -0.00001617       0.00061890       0.00032549      -0.00063906      -0.00050996      -2.27837025
H        5.36998074       5.23997428       4.09209935      -2.91666731       1.41366891      -0.61309529       0.00169116       0.00072528       0.00066191       0.00000233      -0.00135730       0.00109510      -2.12066024
H        4.25100705       5.09695561       4.47290870       0.94372129      -1.50810744      -2.81667876       0.00119434       0.00128195      -0.00038474      -0.00001003      -0.00007672       0.00110270      -3.54616723
H        3.70933966       5.70347793       6.05590434       2.09002726       4.29038176       2.15655437       0.00099360      -0.00108714      -0.00178294      -0.00084617      -0.00270214      -0.00018640      -2.75277262
H        6.30281764       6.05234879       3.69327730      -1.28134309      -1.21539871       2.46477108       0.00093211       0.00080492       0.00107522      -0.00016638      -0.00015947       0.00080568      -1.33072370
H        2.94778115       6.85252153       3.24125061       0.02705460      -0.06242311       0.04531755       0.00001448       0.00006172       0.00003378      -0.00004301       0.00001816      -0.00002473      -0.01016995
H        4.56352772       5.00485145       5.51724626      -4.93923988      -6.70739822       1.68810155       0.00103305      -0.00452175       0.00001617      -0.00121807      -0.00081707      -0.00280005      -3.96935411
H        6.34200782       5.35520308       4.58039146       0.61730941      -0.11256344       1.23632232      -0.00000918       0.00034762       0.00025252      -0.00019785      -0.00079114       0.00022862      -1.72006722
H        3.46134463       5.09931461       5.22773560      -0.17605066      -4.41328224      -2.20208077       0.00071138      -0.00083683      -0.00278861      -0.00193391       0.00000877      -0.00106964      -2.64661676
H        5.07187037       4.40216606       4.74410113       1.68634962      -0.81313965       0.66710462       0.00023363      -0.00019504       0.00006814       0.00053183       0.00037180       0.00035790      -2.86193529
H        6.63783852       6.42569162       4.74021858      -0.88062770      -0.79879957      -1.34754157       0.00039942       0.00027459       0.00086381       0.00026499       0.00018774       0.00030746      -1.06936322
H        3.29002638       4.43500342       4.37316471       1.72223642       0.16539203      -1.72617736       0.00124760       0.00005723      -0.00054744      -0.00019968      -0.00012490       0.00052488      -2.09065758
H        6.76973916       3.14497098       6.41119215      -0.06570528       0.09059339      -0.02849702       0.00004446       0.00008144       0.00002041      -0.00002356       0.00001757      -0.00005606      -0.01631379
H        4.06119482       4.11923259       5.10413064      -0.92871448       1.64886631      -0.55035374      -0.00032702       0.00117414       0.00051572      -0.00029012      -0.00040413      -0.00038881      -3.08676599
