20
Lattice="10.0 0.0 0.0 0.0 10.0 0.0 0.0 0.0 10.0" Properties=species:S:1:pos:R:3:forces:R:3:stresses:R:6:energies:R:1 energy=-69.60327831164662 stress="0.00016307549320839033 -2.0010511340849732e-05 2.7301074908019344e-05 -2.0010511340849732e-05 6.365269107957546e-05 8.205288339305666e-06 2.7301074908019344e-05 8.205288339305666e-06 -3.349760338651451e-05" free_energy=-69.60327831164662 pbc="F F F"
H        4.85452731       5.98098696       5.49990196       0.00177122      -0.01390890      -0.01727978      -0.00075501       0.00060218      -0.00094388      -0.00079239      -0.00077352      -0.00031070      -4.75516623
H        4.62759221       4.92387563       4.03978621       0.00126723       0.01162951      -0.03213168       0.00142754       0.00040628       0.00003138       0.00010974       0.00006021       0.00025916      -3.25971519
H        4.48371884       5.10049973       6.19082218      -0.03701798       0.09028011       0.01847235       0.00018186      -0.00015943      -0.00031529      -0.00128476       0.00052881       0.00039040      -4.25155595
H        3.40699523       5.28511360       6.38972939      -0.01577732      -0.03188053       0.00897762       0.00080035       0.00052793       0.00034443       0.00068261       0.00028724       0.00042566      -2.67920984
H        5.31485466       5.79753145       6.46859998       0.00583233      -0.00215581       0.00094212       0.00144951       0.00021014       0.00036854       0.00035432      -0.00067215       0.00004150      -2.74297301
H        5.46454264       5.01390428       5.69033901      -0.00865102      -0.03069725      -0.02498668      -0.00202689      -0.00037105       0.00047670      -0.00027832       0.00003056      -0.00069454      -4.70677325
H        4.20661155       6.13355589       6.39664853       0.00968989       0.00493770       0.01053758       0.00159465      -0.00009601       0.00047334       0.00019492      -0.00006575       0.00046259      -2.73298510
H        5.38445747       5.52573882       4.64449783      -0.02519034       0.04607937      -0.00799724      -0.00088886      -0.00021089       0.00106655       0.00002817       0.00077718      -0.00005072      -4.73700315
H        4.33417397       5.89327994       4.50943798       0.01979951      -0.01306042      -0.01513359       0.00080764       0.00035578       0.00031567      -0.00006690       0.00021267       0.00024675      -3.39327644
H        3.79604345       5.69452162       5.45861560       0.05587313      -0.07195317      -0.00397602      -0.00152291       0.00034021      -0.00093752      -0.00014504       0.00108463      -0.00065479      -4.64803706
H        6.36611310       6.01043550       4.47803988      -0.03083656      -0.01268368      -0.00634029       0.00033376       0.00022328       0.00014772      -0.00011185      -0.00019920       0.00013429      -1.72284489
H        2.83576294       5.16672721       5.39867244      -0.00325793      -0.00474395      -0.00904403       0.00040834      -0.00028223       0.00099866       0.00023113      -0.00016975      -0.00003164      -2.21711897
H        4.56084852       5.00699247       5.12126019       0.04159484       0.03934938       0.03058153      -0.00611429      -0.00514456      -0.00617241      -0.00081565      -0.00012036      -0.00058678      -5.59468347
H        6.30273973       5.01209996       4.97921406      -0.03767168      -0.00321992      -0.00657975       0.00048962       0.00050002      -0.00004339       0.00055824       0.00014345       0.00011023      -3.19411810
H        3.71726126       4.53692134       5.60105748      -0.01087624       0.00710365      -0.02488851      -0.00064360       0.00125726       0.00084004       0.00055254      -0.00003929      -0.00006723      -3.72146156
H        5.37155849       4.41371836       4.71484763       0.02786082      -0.01702811       0.02753847       0.00103912       0.00056408       0.00056554       0.00041183       0.00028314       0.00098566      -3.76864873
H        5.96089930       5.96592516       5.51684058      -0.00469938      -0.01315707       0.02206649       0.00052932       0.00005348       0.00100324       0.00061494      -0.00009902      -0.00018442      -3.23639611
H        3.61762445       5.01530584       4.58201445       0.02662107       0.01936033       0.02999590       0.00082192       0.00079624       0.00095698       0.00013395      -0.00084452       0.00001230      -3.71838973
H        6.03352735       4.07861386       5.54291593       0.00035309       0.00233417      -0.01202868       0.00045395       0.00039086       0.00004449      -0.00015326       0.00004599      -0.00011318      -1.77007622
H        4.25190917       4.07422994       4.68426926      -0.01668467      -0.00658541       0.01127417       0.00177706       0.00010009       0.00074572      -0.00021600      -0.00044304      -0.00039453      -2.75284529
