20
Lattice="10.0 0.0 0.0 0.0 10.0 0.0 0.0 0.0 10.0" Properties=species:S:1:pos:R:3:forces:R:3:stresses:R:6:energies:R:1 energy=-69.42838542037806 stress="0.0019308191117950269 -0.001577983930936587 5.418795601651618e-05 -0.001577983930936587 0.00247523100946122 -0.00020982133914072102 5.418795601651618e-05 -0.00020982133914072102 -0.0010519188941369014" free_energy=-69.42838542037806 pbc="F F F"
H        4.96917182       5.97032512       5.43659808      -0.11750923      -0.23855635       0.02623665      -0.00064663       0.00060585      -0.00044031      -0.00089029      -0.00066827      -0.00004738      -4.73618269
H        4.63294409       4.80588909       4.08039716      -1.22637968       1.59410397      -1.37894128       0.00150628       0.00053501      -0.00062392       0.00040646      -0.00013406      -0.00045541      -3.20664998
H        4.45691448       5.19192325       6.19252124      -0.05345680       1.15745879      -0.04252395       0.00049460       0.00005829      -0.00001785      -0.00144346       0.00044340       0.00041451      -4.19995824
H        3.43028711       5.58647139       6.34552878      -0.32271936       0.05995043       0.25535597       0.00080501       0.00023972       0.00017842       0.00050509       0.00036171       0.00028849      -2.70114272
H        5.38611935       5.78697334       6.42870477      -0.16828404      -0.02026302      -0.13218269       0.00149350       0.00019279       0.00037120       0.00034614      -0.00050646      -0.00000595      -2.75393332
H        5.41681385       4.94122149       5.71402653      -0.02792544       0.00725465       0.18995099      -0.00215870      -0.00071665       0.00001616      -0.00060269       0.00005664      -0.00050929      -4.72827037
H        4.35274216       6.27349176       6.31578960       0.02171119      -0.01215071      -0.08233211       0.00137857      -0.00007297       0.00042027       0.00031649      -0.00003443       0.00010900      -2.76584380
H        5.42743570       5.37015993       4.63401525       0.18373224      -1.19320667       0.60712968      -0.00104562       0.00048853       0.00089339      -0.00030736       0.00035826       0.00034883      -4.73248245
H        4.44707520       5.87015248       4.43486815       0.55993338      -0.12380227       0.00533719       0.00073094       0.00047879       0.00065919       0.00027378       0.00021468      -0.00000045      -3.38217397
H        3.87800381       5.86852693       5.39271180       0.61594179      -1.02645205      -0.09105896      -0.00140057       0.00086298      -0.00055453      -0.00049533       0.00098406      -0.00043436      -4.61671067
H        6.47988381       5.67723812       4.45280588      -0.23079337      -0.18838180      -0.05958953       0.00048835       0.00021666       0.00009917      -0.00012642      -0.00021553       0.00014090      -1.72020567
H        2.84161497       5.50514810       5.36259992       0.12074174      -0.03328608      -0.05397757       0.00043322      -0.00019344       0.00094092       0.00034104      -0.00012161      -0.00016232      -2.21357566
H        4.52111517       5.02907428       5.13178778       0.06396217       0.07454462       0.21874625      -0.00528437      -0.00471746      -0.00613716      -0.00064463      -0.00007263      -0.00069437      -5.62540684
H        6.24214777       4.73661158       5.01402310       0.41148526       0.43437044       0.34663264       0.00031797       0.00063838      -0.00006434       0.00056787       0.00008690       0.00009379      -3.19372658
H        3.60182162       4.74881670       5.61901380      -0.03662840      -0.15257267       0.03297808      -0.00064869       0.00121402       0.00051318       0.00039492       0.00012059       0.00032121      -3.71902103
H        5.23531124       4.25481667       4.84525202      -0.76992693       1.02980067      -0.57688226       0.00150641       0.00112950       0.00014690       0.00004460       0.00001153       0.00073597      -3.75290407
H        6.06120443       5.78244865       5.47895556      -0.04208949      -0.13432367       0.07666177       0.00047872       0.00035146       0.00085914       0.00075129       0.00002451      -0.00035362      -3.22192804
H        3.58849269       5.15968507       4.57064883       1.15852537      -0.67002873       0.05783170       0.00147180       0.00069768       0.00103684       0.00041404      -0.00078395      -0.00045109      -3.67022668
H        5.87089853       3.93413490       5.70492488      -0.05985452       0.04083038      -0.12335676       0.00038577       0.00039065       0.00016095      -0.00018740       0.00007512      -0.00012014      -1.75706140
H        4.05176382       4.13686889       4.75233784      -0.08046588      -0.60528994       0.72398421       0.00162423       0.00007544       0.00049046       0.00012607      -0.00014626      -0.00079633      -2.73098122
