20
Lattice="10.0 0.0 0.0 0.0 10.0 0.0 0.0 0.0 10.0" Properties=species:S:1:pos:R:3:forces:R:3:stresses:R:6:energies:R:1 energy=-57.319213348247374 stress="-0.0010255151616390423 -0.007259784524233827 -0.003805036369820436 -0.007259784524233827 -0.00408055778635898 -0.004642040834165131 -0.003805036369820436 -0.004642040834165131 0.0033918209880776894" free_energy=-57.319213348247374 pbc="F F F"
H        4.83512365       6.05337212       5.61249765       2.30258528       2.21365805       2.55052396       0.00038929      -0.00074527      -0.00000635      -0.00132437      -0.00042589      -0.00099901      -4.13994672
H        4.71754427       4.08220663       4.05671208      -2.07842347       0.88589583       1.94810501       0.00121839       0.00060753       0.00110247       0.00047275      -0.00054274       0.00002699      -2.25035405
H        4.53692591       5.28436828       6.48599554       1.61053159       1.95835842      -2.40467710       0.00125278       0.00086399       0.00093874      -0.00109107      -0.00006234      -0.00000331      -3.54516550
H        3.52659636       5.65097007       6.75473869       0.01975206       0.04477119      -0.56214347       0.00021944       0.00013920       0.00057236       0.00022961      -0.00030137       0.00015473      -1.73223080
H        5.46075727       5.92994667       6.51221534      -1.35401228       2.08109440       0.22684181       0.00176256      -0.00034872       0.00059706      -0.00026429      -0.00057295      -0.00018254      -2.67979289
H        5.46287993       5.07491195       5.84167001       1.45541758      -2.74727816      -0.03132610       0.00026093       0.00019648       0.00000759      -0.00110454      -0.00074287      -0.00194284      -4.53858294
H        4.35931852       6.38331649       6.56888153       0.94762970      -2.21664874      -2.23889895       0.00171827       0.00076442       0.00109238       0.00084513       0.00031037      -0.00023302      -2.54806788
H        5.28041022       5.49160472       4.78822487      -5.51319436       0.84053469      -5.30510176      -0.00042177      -0.00321986      -0.00050551      -0.00052743      -0.00038291      -0.00004985      -4.16101665
H        4.26806942       5.05790538       4.37118831       2.29702488      -1.32603164       0.16401964       0.00231137       0.00187883      -0.00028770      -0.00048400       0.00055128      -0.00005966      -3.51709041
H        3.74718083       5.83955011       5.67670055       0.68993110       0.28528613       2.12610274       0.00069985       0.00069714       0.00196933       0.00047637       0.00132195       0.00047744      -3.08968447
H        6.28386427       5.82575657       4.43326365       0.65680498       0.72988768      -3.49607427       0.00023719      -0.00044380      -0.00140640       0.00003383       0.00022562       0.00022413      -1.66611146
H        3.17508881       6.38364232       3.60091045       0.27891951      -0.40457837       0.35113657       0.00015847       0.00030221       0.00024468      -0.00020569       0.00015061      -0.00017488      -0.09439342
H        4.46760259       5.07195048       5.42455155       1.09813670      -3.31261592       1.87980341      -0.00488304      -0.00456531      -0.00402409      -0.00120713      -0.00141878      -0.00025478      -4.69248436
H        6.18753858       4.88416069       4.98751682       6.04891466       2.27998902       4.67346746      -0.00275584       0.00027592       0.00131071       0.00043886      -0.00051342      -0.00191002      -2.88623104
H        3.45617080       4.86826379       5.12979244      -4.64247397       2.35889443      -1.51325377      -0.00184338       0.00010621       0.00136898       0.00083611      -0.00051138       0.00076093      -2.70930285
H        5.23425222       4.44469985       4.96976872      -6.81155317      -9.38430452      -0.29984571      -0.00253408      -0.00328724       0.00012483      -0.00051629       0.00104248      -0.00215889      -3.66807181
H        5.96162112       5.96747379       5.45682528       1.23329264       1.79176166       6.75300483      -0.00004897       0.00032443      -0.00167133      -0.00018326      -0.00111651      -0.00106600      -3.05713344
H        3.57857413       4.18692937       4.19378791       0.24691761       1.71464587      -0.53279468       0.00072766       0.00065135      -0.00003858       0.00082515      -0.00054289       0.00019664      -2.09404482
H        6.16390838       4.07430800       5.95475578      -2.97072386       4.60137057      -3.46090393       0.00140841       0.00223831       0.00166769      -0.00118920       0.00072543      -0.00115223      -1.17576438
H        4.18833432       4.07464046       5.08751372       4.48452282      -2.39469059      -0.82798570      -0.00090304      -0.00051636       0.00033497      -0.00070260      -0.00099872       0.00108639      -3.07374347
