20
Lattice="10.0 0.0 0.0 0.0 10.0 0.0 0.0 0.0 10.0" Properties=species:S:1:pos:R:3:forces:R:3:stresses:R:6:energies:R:1 energy=-69.3805788097253 stress="0.0027689425120165758 -0.0022696767884192296 7.511485746327843e-05 -0.0022696767884192296 0.003152337784420123 -0.00021735968783684982 7.511485746327843e-05 -0.00021735968783684982 -0.0003626397146659749" free_energy=-69.3805788097253 pbc="F F F"
H        4.99242744       5.95909455       5.41027691       0.04330196      -0.00433659      -0.04217703      -0.00074543       0.00042764      -0.00043804      -0.00085821      -0.00074959      -0.00010036      -4.75379302
H        4.60647629       4.77103704       4.08583434      -1.36979920       1.22641845      -0.51987671       0.00151105       0.00066943      -0.00022121       0.00028097      -0.00017011      -0.00061821      -3.18582513
H        4.47462966       5.22342114       6.18873179      -1.44392319       1.58436243       0.78483000       0.00044703       0.00000957      -0.00029927      -0.00150447       0.00055273       0.00036892      -4.20322370
H        3.45961711       5.65722066       6.36019894       0.27996822      -0.06416908      -0.13802818       0.00106151       0.00031751       0.00028789       0.00046965       0.00023288       0.00020868      -2.70557259
H        5.41834705       5.79893531       6.40245410       0.08069189      -0.06908899      -0.06351965       0.00133135       0.00020283       0.00033773       0.00037539      -0.00052344      -0.00005197      -2.75873992
H        5.41359877       4.93064611       5.71294610       0.08385003       0.15779868      -0.06627345      -0.00236447      -0.00070514      -0.00005637      -0.00074155       0.00045736      -0.00031684      -4.73169164
H        4.40305378       6.31144724       6.28952755      -0.06701867      -0.01393422       0.03143017       0.00129125      -0.00002150       0.00034584       0.00030548      -0.00007932       0.00009290      -2.77060264
H        5.41850159       5.32062145       4.61713812       1.24753149      -1.18415024       1.46764805      -0.00129800       0.00040164       0.00104551      -0.00025555       0.00049600       0.00023810      -4.73002423
H        4.46083980       5.84884492       4.41776570      -0.33139975       0.13218488       0.14630725       0.00070783       0.00040493       0.00075028       0.00035855       0.00001187       0.00015385      -3.37999371
H        3.89739553       5.90128504       5.38790849       1.14839923      -1.65656772      -0.50995946      -0.00127851       0.00106299      -0.00020456      -0.00053727       0.00073084      -0.00050604      -4.62235645
H        6.47011245       5.59837482       4.41512852       0.10667592       0.12091783      -0.19895979       0.00033046       0.00009930       0.00009433      -0.00005019      -0.00019667       0.00005185      -1.72394797
H        2.84821709       5.58217552       5.39304760       0.20178997      -0.32381186      -0.27521146       0.00041207      -0.00010805       0.00099653       0.00040143      -0.00016517      -0.00028891      -2.20227065
H        4.50925434       5.02781296       5.13612182      -0.12233764      -0.15687397      -0.14956977      -0.00493082      -0.00465638      -0.00601673      -0.00059888       0.00000038      -0.00098390      -5.62978603
H        6.23400378       4.69373404       5.02556100      -0.16866610      -0.10116423      -0.19218957       0.00059100       0.00056546      -0.00022063       0.00045821       0.00034335       0.00013965      -3.19395401
H        3.58557228       4.79924514       5.64566871       0.28603818      -0.03365115       0.01886982      -0.00039762       0.00133763       0.00056890       0.00047605       0.00012145       0.00038211      -3.71476979
H        5.20324619       4.22498777       4.87232227      -1.06394597       1.49693839      -1.45155324       0.00186863       0.00108646       0.00003726      -0.00002631      -0.00003664       0.00074970      -3.74338872
H        6.07964481       5.74922954       5.44751336      -0.39099816      -0.20050308      -0.10755301       0.00055860       0.00035538       0.00092295       0.00072871       0.00015211      -0.00019552      -3.23024686
H        3.56909476       5.18105958       4.58945101       1.48895412      -0.69356645       0.25578347       0.00172450       0.00099000       0.00111951       0.00051339      -0.00082850      -0.00055604      -3.63995249
H        5.83818062       3.90882080       5.72331216       0.22529694       0.00667306       0.30792237       0.00028309       0.00042620      -0.00001425      -0.00012933      -0.00007169      -0.00009387      -1.75410446
H        4.00954826       4.14198412       4.78660247      -0.23440929      -0.22347611       0.70208019       0.00166544       0.00028641       0.00060168       0.00011659      -0.00020273      -0.00094379      -2.70633482
