20
Lattice="10.0 0.0 0.0 0.0 10.0 0.0 0.0 0.0 10.0" Properties=species:S:1:pos:R:3:forces:R:3:stresses:R:6:energies:R:1 energy=-69.40546746810928 stress="0.001818667338084008 -0.0015784284465996665 -5.002327214888679e-05 -0.0015784284465996665 0.0024531885559877916 -0.0009069912958158394 -5.002327214888679e-05 -0.0009069912958158394 -0.0009787689521599996" free_energy=-69.40546746810928 pbc="F F F"
H        4.97786290       5.96908739       5.42211059       0.09919985      -0.03979469      -0.03273778      -0.00070837       0.00048311      -0.00048335      -0.00090041      -0.00075900      -0.00014631      -4.73792232
H        4.62752595       4.79002519       4.08018911      -1.52462915       1.25006660      -0.61225409       0.00161567       0.00071707      -0.00030577       0.00027474      -0.00022496      -0.00045859      -3.19105245
H        4.46407515       5.20935807       6.18776388      -0.94695298       1.36927925       0.54466823       0.00016114      -0.00004356      -0.00019841      -0.00151138       0.00054753       0.00041327      -4.20228879
H        3.44215919       5.61794125       6.34957146      -0.13086772      -0.03551827       0.02679127       0.00091312       0.00029792       0.00025232       0.00052042       0.00033349       0.00027137      -2.70110516
H        5.39852049       5.79508458       6.41346289      -0.00321756      -0.00793454       0.07148889       0.00136122       0.00017527       0.00028235       0.00036145      -0.00050957      -0.00004454      -2.76152134
H        5.40964456       4.93566312       5.71461766       0.58000036       0.21717625       0.17945223      -0.00259173      -0.00079385      -0.00018183      -0.00074768       0.00024627      -0.00033569      -4.71683551
H        4.37344224       6.29313005       6.30140218      -0.06958660       0.04855640       0.01020315       0.00133288      -0.00007746       0.00037004       0.00030334      -0.00005040       0.00011629      -2.76693256
H        5.42831013       5.34887028       4.62662232       0.43060386      -1.31367532       0.92044625      -0.00109926       0.00057149       0.00096341      -0.00032360       0.00034043       0.00025195      -4.73016295
H        4.45663845       5.86187493       4.42388075       0.03290998       0.08262792      -0.01344386       0.00082264       0.00040088       0.00068922       0.00040125       0.00004827       0.00006586      -3.37645068
H        3.88414185       5.88520367       5.38851141       0.96933381      -1.30823425      -0.48231034      -0.00124621       0.00096790      -0.00034647      -0.00052963       0.00082142      -0.00046475      -4.61764663
H        6.48437118       5.63573274       4.44002514      -0.17719090      -0.09594687      -0.02375071       0.00045827       0.00017844       0.00013458      -0.00009990      -0.00022492       0.00011293      -1.71965652
H        2.84486350       5.52928855       5.37081297       0.05315949       0.01657820       0.05991919       0.00040086      -0.00019614       0.00092223       0.00034727      -0.00007033      -0.00014976      -2.21268578
H        4.51711488       5.03384616       5.12989394      -0.58035703      -0.24995515      -0.06247380      -0.00527425      -0.00502185      -0.00617446      -0.00054154      -0.00010011      -0.00082956      -5.61566250
H        6.23767021       4.71517668       5.02765246       0.01461350       0.06850454      -0.03475833       0.00051944       0.00060632      -0.00014215       0.00047957       0.00024084       0.00015714      -3.19671200
H        3.59939970       4.76874766       5.63021306      -0.05838958       0.06204299       0.01095979      -0.00063138       0.00124825       0.00053120       0.00033411       0.00011242       0.00035736      -3.72261976
H        5.21594049       4.24000342       4.86252130      -0.47407621       1.19491387      -1.00084469       0.00171130       0.00112736       0.00009910      -0.00007978       0.00002550       0.00080707      -3.75424418
H        6.06608632       5.76469738       5.46513550       0.03576548       0.01253839       0.07370125       0.00044050       0.00028762       0.00079172       0.00068277       0.00004538      -0.00030690      -3.23790116
H        3.57912824       5.17222934       4.57614259       1.69927228      -0.99149332       0.19409105       0.00162112       0.00091466       0.00111604       0.00034649      -0.00072500      -0.00049397      -3.65068074
H        5.85021015       3.92367279       5.72289697       0.03540397      -0.04220267      -0.06036761       0.00035881       0.00035630       0.00014107      -0.00018330       0.00004613      -0.00009168      -1.75657431
H        4.03465601       4.14034451       4.77408479       0.01500514      -0.23752933       0.23121989       0.00165290       0.00025348       0.00056039      -0.00004118      -0.00019342      -0.00080993      -2.73681214
