20
Lattice="10.0 0.0 0.0 0.0 10.0 0.0 0.0 0.0 10.0" Properties=species:S:1:pos:R:3:forces:R:3:stresses:R:6:energies:R:1 energy=-65.52381740285514 stress="-0.0061606315350741 -0.0017722637139139098 0.0016197047286892893 -0.0017722637139139098 -6.11269317442692e-05 -0.0014169373642648826 0.0016197047286892893 -0.0014169373642648826 -0.002133211840634317" free_energy=-65.52381740285514 pbc="F F F"
H        4.94267559       5.89423013       5.49309996       0.30742163       1.52792199      -1.17772656      -0.00050691      -0.00106440      -0.00265827      -0.00142887      -0.00005962       0.00019462      -4.75178706
H        4.64010785       4.66797464       4.13041362       6.90997672      -1.95662459      -1.47459658      -0.00473195      -0.00093905       0.00053928       0.00034958      -0.00031698      -0.00097959      -2.88746038
H        4.63414530       5.36078895       6.43023850      -1.97585800       0.73788051       0.13075953      -0.00049616      -0.00046504       0.00042601      -0.00090368       0.00100086       0.00000504      -3.59994853
H        3.66650006       5.83633362       6.66725491      -0.21193639       0.00358250      -0.17360834       0.00020687       0.00018938       0.00044195       0.00036567      -0.00022568       0.00017758      -1.79114221
H        5.59392007       5.92014403       6.36017801      -0.19341060       0.44767449       1.30782882       0.00076113       0.00066822      -0.00031848       0.00042922      -0.00051767      -0.00050442      -2.70690580
H        5.44116081       4.93960386       5.83322275       0.02630654      -0.79947073      -0.63203395      -0.00166451      -0.00004749      -0.00007358      -0.00011313       0.00135536       0.00020970      -4.71087254
H        4.54233305       6.46238536       6.33440204      -0.05612811      -0.71600431       0.02075679       0.00146715       0.00038851       0.00016268       0.00026109       0.00065823      -0.00003168      -2.64178547
H        5.31015761       5.21848040       4.74760813       0.83581132      -1.44407396       1.34666816      -0.00210423      -0.00218336      -0.00145850      -0.00221344      -0.00151864      -0.00021556      -4.68296358
H        4.29366353       5.62045846       4.62963492      -0.12650649       0.17198094      -2.11220138      -0.00036401       0.00023393      -0.00139122       0.00001762      -0.00049336       0.00065212      -4.33325579
H        3.84234211       5.92617073       5.57954949       1.92049469      -0.02266075       1.60547026       0.00105650       0.00083185       0.00072701      -0.00034083       0.00171885      -0.00107570      -3.98026217
H        6.32218772       5.36628446       4.33273233       0.10446276       0.03854253      -0.33378374       0.00030274       0.00009250       0.00017694       0.00000655      -0.00012330       0.00011934      -1.74727157
H        3.24714356       5.97664658       4.55975922       1.52380333      -1.03482221       0.51136940       0.00058636       0.00074468       0.00125606       0.00066351       0.00055875      -0.00050156      -2.10801676
H        4.41688608       4.92990260       5.44785342      -0.06705210      -1.28042849      -1.06967586      -0.00019366      -0.00073531      -0.00000433       0.00067071      -0.00144188      -0.00053404      -5.14217091
H        6.13812086       4.56202391       5.08204846       1.59347040       0.79419769       0.34919114      -0.00037315       0.00113934      -0.00013391       0.00013116       0.00029131      -0.00008578      -3.15708043
H        3.36826735       5.04423822       5.13470424      -0.38765364       0.95125720       0.16681349       0.00060906      -0.00163756       0.00013644      -0.00033754      -0.00053975       0.00097564      -3.22574909
H        5.10891877       4.16604476       5.04716732      -3.70919408       1.52884405      -1.23401282       0.00108008       0.00101557       0.00078988       0.00025003       0.00059663      -0.00016742      -3.75265181
H        6.06414346       5.71468753       5.36160260       0.18739232      -0.26274777       0.81451317       0.00073813       0.00100312      -0.00038075       0.00018959      -0.00043246      -0.00056587      -3.19753208
H        3.63145327       4.96645799       4.05207457      -8.17251124       3.53571632      -0.23910182      -0.00325422       0.00012811       0.00046046       0.00057283      -0.00026120       0.00044606      -2.59371895
H        5.75058649       3.86877796       5.90372713       0.14593321       1.30175732      -0.59575871       0.00039833       0.00094001       0.00037272      -0.00042940      -0.00015740      -0.00016963      -1.74557572
H        3.93704807       4.18834355       4.78023926       1.34517774      -3.52252273       2.78912899       0.00032183      -0.00036414      -0.00120361       0.00044239       0.00152766       0.00027885      -2.76766653
