20
Lattice="10.0 0.0 0.0 0.0 10.0 0.0 0.0 0.0 10.0" Properties=species:S:1:pos:R:3:forces:R:3:stresses:R:6:energies:R:1 energy=-26.327433609135852 stress="0.015020112265309065 0.0019236729865175833 -0.00421809645327434 0.0019236729865175833 0.006066454602114999 -0.0008852913812220333 -0.00421809645327434 -0.0008852913812220333 0.00808441930989804" free_energy=-26.327433609135852 pbc="F F F"
H        5.14115755       6.12645848       6.60144560      -1.30657983       1.25041351      -0.15329296       0.00077752       0.00050661      -0.00000341       0.00029982      -0.00024601      -0.00084987      -2.36203758
H        4.28425267       3.73063243       4.10563833      -1.71842870       0.45036062       2.17503708       0.00212301       0.00105970       0.00093924      -0.00054504      -0.00091979       0.00093465      -1.82635345
H        4.20334934       5.73059184       7.03640510       0.63131263      -4.25488541       0.36793478       0.00011737      -0.00094282       0.00059848       0.00048265      -0.00069924       0.00029563      -2.53894927
H        3.26552558       5.21010601       7.47703534       1.54119061       1.34184618      -1.29397410       0.00081722       0.00059291       0.00046158      -0.00037695      -0.00043419       0.00043116      -1.07156516
H        6.09811731       5.85471345       7.10824319      -0.03002728       0.20787391       0.42224733       0.00030825      -0.00009232      -0.00012969      -0.00008282      -0.00003954       0.00000962      -1.08348754
H        5.69748467       5.18301214       6.31627176      -0.75413708       0.18294714      -0.13328588       0.00034633       0.00020469       0.00003255      -0.00001538      -0.00028966      -0.00031272      -1.58423552
H        4.07496047       6.80488186       6.87901922       0.23703760      -0.95298605      -1.20284067       0.00181297       0.00021362       0.00017264       0.00052182      -0.00022830       0.00002059      -1.39240907
H        5.33644934       5.49125435       3.34416524       1.02592477       0.98198371       0.25468569       0.00082830       0.00014211       0.00007824       0.00022138       0.00017352       0.00042459      -1.09619616
H        3.82756173       4.74525439       4.09399712       2.72384921       0.82473497      -0.19311011       0.00137613      -0.00015891       0.00023365      -0.00007436      -0.00007814      -0.00000838      -1.54745275
H        3.19936729       6.03032630       6.69647143       0.85527016       1.04399789       0.05875040       0.00053285       0.00073373       0.00019077       0.00009879      -0.00022569       0.00060652      -1.55561251
H        6.91017485       6.62371181       3.12892447      -0.87956955      -0.55387489       2.60788225       0.00036150       0.00030187       0.00134599      -0.00011024      -0.00027381       0.00031556      -0.98990249
H        2.89586253       7.07714448       3.14419663       0.01936424      -0.02785189       0.00931155       0.00001741       0.00002978       0.00000408      -0.00001052       0.00000503      -0.00001843      -0.00308530
H        4.61821196       5.30524476       6.04562650      -1.24184731       0.87217393       1.47153408       0.00062617       0.00054725       0.00116011       0.00056788      -0.00042996      -0.00021062      -1.73261784
H        6.25613518       5.98449724       3.82288180      -1.08658852      -0.79823505      -1.50025984       0.00065241       0.00024773       0.00032163      -0.00030138      -0.00018259       0.00040292      -1.53034663
H        3.46959269       3.34693014       6.01080394      -0.10301451       0.51076809       0.03271557       0.00006578       0.00021980       0.00022479      -0.00020578       0.00007806       0.00005766      -0.61459062
H        5.02743684       4.66826576       4.02427012      -3.73276948      -1.87985666       0.88800445       0.00215931       0.00087619       0.00006743       0.00009024      -0.00015554       0.00073946      -1.49016060
H        6.88622234       6.76272627       4.29719363       0.49059362       0.36683725      -1.49440509      -0.00010054      -0.00018982       0.00104417      -0.00001356      -0.00013458      -0.00015351      -0.97732529
H        3.12058747       3.94829306       4.41052156       2.96522164      -2.36066977       0.87042290       0.00158116       0.00050702       0.00064602      -0.00034961       0.00003489      -0.00077910      -1.47358544
H        6.87325527       2.91777737       6.40987642      -0.01547888       0.02982154      -0.00123229       0.00000910       0.00003378       0.00000006      -0.00000140       0.00000072      -0.00001753      -0.00444190
H        3.70605652       3.08815560       4.95452351       0.37867668       2.76460098      -3.18612514       0.00060784       0.00123355       0.00069610      -0.00108083      -0.00017328       0.00003547      -1.45307848
