20
Lattice="10.0 0.0 0.0 0.0 10.0 0.0 0.0 0.0 10.0" Properties=species:S:1:pos:R:3:forces:R:3:stresses:R:6:energies:R:1 energy=-66.90415309914408 stress="0.0007960130582363255 -0.00014437442943982965 0.0008515173328841045 -0.00014437442943982965 -0.002220308363634504 0.0013822983493622205 0.0008515173328841045 0.0013822983493622205 -0.0017779464919260657" free_energy=-66.90415309914408 pbc="F F F"
H        4.99130114       5.92430302       5.45457057       0.45929163      -0.43554160      -0.10054504      -0.00197079       0.00080390      -0.00088563      -0.00073309       0.00028620       0.00062143      -4.74972605
H        4.55030023       4.69398373       4.17210801      -1.20987971       2.06664876      -2.04353287      -0.00143864       0.00015299      -0.00006941       0.00095260      -0.00055639      -0.00069579      -3.25978370
H        4.57676119       5.27229953       6.30219660      -0.48627383      -0.95505497      -0.12455956      -0.00032177      -0.00089727       0.00031147      -0.00070799       0.00056341       0.00080371      -3.88510654
H        3.63820459       5.73065108       6.66017217       0.06831666       0.21700708       0.13054518       0.00060838       0.00049068       0.00030560       0.00049363       0.00012527       0.00058186      -1.85095775
H        5.56263996       5.80628841       6.38179929       0.08530191       0.02083553       0.03682858       0.00092750       0.00020613       0.00040323       0.00034126      -0.00048909      -0.00008928      -2.76796559
H        5.43268449       4.91564469       5.73324791      -0.72223139      -0.31154980      -0.17723227      -0.00133210      -0.00093387      -0.00071109      -0.00044462       0.00109260      -0.00018411      -4.76290124
H        4.57183745       6.36439678       6.39147916      -0.28775957       0.12871009       0.08526209       0.00114094      -0.00015641       0.00045847       0.00019436      -0.00024788       0.00006429      -2.69491826
H        5.32623295       5.25570307       4.67471830       0.06213342       0.90895690      -0.71135698      -0.00119881      -0.00139230      -0.00102763      -0.00094784      -0.00011932      -0.00062838      -4.74901312
H        4.31281737       5.76703003       4.56253542       0.11464154      -0.11851798       0.01046680       0.00208091       0.00070679       0.00071745       0.00077564      -0.00030309      -0.00037002      -3.91589719
H        3.93157842       5.87797470       5.61815362      -0.19891627       0.84463416      -0.06785411      -0.00276933      -0.00048763      -0.00154255       0.00049161      -0.00039844      -0.00067565      -4.24860635
H        6.32092374       5.52598397       4.28693169       0.24398631      -0.03056571       0.08235125       0.00017042       0.00022027       0.00033383      -0.00008082      -0.00018038       0.00003741      -1.73454676
H        3.20385967       5.95207574       4.82014428      -0.12689029      -0.11088709      -0.21578288       0.00073162       0.00024876      -0.00052536      -0.00087711      -0.00049862      -0.00030857      -2.20877355
H        4.43460567       4.95405668       5.26302368       1.08248278       0.53460408       0.27017400      -0.00097614      -0.00182521      -0.00099855       0.00026246       0.00058953      -0.00012823      -5.59129176
H        6.20231870       4.65894732       4.98873259      -0.49499848      -0.58596811      -0.27401033       0.00078689       0.00043550      -0.00011841       0.00023840       0.00017508       0.00032239      -3.19280694
H        3.35546529       4.96733236       5.41729392      -0.42477434       0.28699202      -0.04039930       0.00026929       0.00098982       0.00138099       0.00007182       0.00004065      -0.00022451      -3.07853605
H        5.15336689       4.18831236       4.93216423      -0.02297208      -0.67871259       0.66616416       0.00181259       0.00019791      -0.00058576       0.00054420      -0.00039295       0.00082116      -3.62828164
H        6.07763075       5.71965998       5.36168224       0.24487276       0.32502009       0.52865202       0.00035778       0.00019798       0.00048785       0.00037819      -0.00009193      -0.00013869      -3.25782516
H        3.51194420       5.03291686       4.31971818       0.97866517      -0.42801100       0.04539403       0.00030073      -0.00143578       0.00047526      -0.00000960       0.00125000       0.00064133      -2.99382003
H        5.85927601       3.89544755       5.73892137       0.20453465       0.10974050       0.02986151       0.00025753       0.00044285       0.00011553      -0.00019374      -0.00003598      -0.00009609      -1.74898361
H        3.87801290       4.12696986       4.82791768       0.43046913      -1.78834036       1.86957372       0.00135899      -0.00018541      -0.00030324       0.00063295       0.00004285      -0.00049865      -2.58441181
