20
Lattice="10.0 0.0 0.0 0.0 10.0 0.0 0.0 0.0 10.0" Properties=species:S:1:pos:R:3:forces:R:3:stresses:R:6:energies:R:1 energy=-59.50309102995007 stress="0.0010065868797665988 -0.004094074019260495 -0.007309721098586255 -0.004094074019260495 -0.002047498515684871 0.003188353621177669 -0.007309721098586255 0.003188353621177669 0.003869298927517939" free_energy=-59.50309102995007 pbc="F F F"
H        4.89983024       6.05967578       5.53238642       0.12785232       1.76837727       2.73110192       0.00135463      -0.00019224       0.00120282      -0.00066079      -0.00116063      -0.00095397      -4.04877502
H        4.64687888       4.26332280       4.10778960       2.91973392       1.86955245      -1.56316173      -0.00056027       0.00095242      -0.00051051       0.00096196       0.00058859       0.00035260      -2.47379511
H        4.57382242       5.34874715       6.50474680       2.83356557      -0.44674262      -2.94214509       0.00126703      -0.00030606       0.00122998      -0.00089943      -0.00055192       0.00022037      -3.57617729
H        3.56648606       5.63721754       6.87779610       1.53126150       1.33942270      -1.07386193       0.00081257       0.00064905       0.00065348      -0.00002946      -0.00044889       0.00065882      -1.63178716
H        5.50643834       5.98967752       6.43322756      -0.61102543       1.53932556       0.82410497       0.00177944      -0.00033032       0.00047486       0.00000498      -0.00115808      -0.00009184      -2.63105168
H        5.48014269       5.07943584       5.83868082       0.77718064      -1.63309585       1.01629249       0.00031255      -0.00025706      -0.00050111      -0.00036248      -0.00118778      -0.00130639      -4.61969453
H        4.41486533       6.42564129       6.58124579       2.10214824      -0.39641537      -1.01045269       0.00180976      -0.00015250       0.00110249       0.00021272      -0.00131820      -0.00017754      -2.46461201
H        5.29449398       5.36097556       4.79284653      -6.55162627       2.86991331      -8.27999913      -0.00194146      -0.00393057      -0.00184243       0.00067328       0.00036845      -0.00022789      -4.31097289
H        4.22289462       5.26070640       4.38239292       0.90312182       0.23199618       2.20992713       0.00222483       0.00215094       0.00168360      -0.00069792       0.00113570      -0.00065771      -3.69829519
H        3.82696270       5.89474143       5.82024043      -0.54633816      -2.39334443      -2.30294562       0.00077367       0.00052891       0.00088829       0.00018950       0.00021046      -0.00006511      -3.27323091
H        6.23075742       5.58567231       4.26318019       0.38967187       1.21556528      -0.22610730       0.00003733      -0.00016069       0.00041391       0.00042955      -0.00008331       0.00005565      -1.70708376
H        3.37534998       6.04733193       3.87341833       2.01169787      -2.75840317       2.02170645       0.00090867       0.00146562       0.00095604      -0.00084459       0.00062951      -0.00082700      -0.65177801
H        4.46572664       5.08169874       5.45135626      -2.36354297      -3.76400192      -0.56942907      -0.00336144      -0.00298692      -0.00130406      -0.00028107      -0.00036609      -0.00056904      -4.89702256
H        6.18149772       4.75039965       4.97849468       2.82060274       2.15245414       2.49314531      -0.00114634       0.00023124       0.00023599       0.00152298      -0.00042317      -0.00062604      -3.06957786
H        3.42626771       5.01948191       5.12972937      -1.65808186       2.74339466      -1.17552411      -0.00049303       0.00066149       0.00213605       0.00098705      -0.00002377       0.00080107      -2.77872238
H        5.18271421       4.34470462       5.06651080      -5.99767665      -6.59608979      -0.64148830      -0.00193408      -0.00312336      -0.00150413       0.00074475      -0.00062997      -0.00066961      -3.79697883
H        6.04502510       5.88972757       5.34406383       0.52742480       0.53336255       3.10100829       0.00067665       0.00091170       0.00105573       0.00018936      -0.00174382      -0.00112222      -3.00416004
H        3.55357597       4.40486072       4.11190338      -2.75063432       2.87629556      -0.52545973      -0.00071997       0.00080649       0.00003262       0.00104654      -0.00051044       0.00030099      -2.13359248
H        5.92441129       4.03836567       5.79234514       1.09206545       0.26389511       2.29808752      -0.00022135       0.00082851      -0.00068019       0.00029721      -0.00057505      -0.00021914      -1.73404758
H        4.07362030       4.14759331       5.02515595       2.44259892      -1.41546163       3.61520059      -0.00057258       0.00020585      -0.00185413      -0.00029580      -0.00006130       0.00102992      -3.00173575
