20
Lattice="10.0 0.0 0.0 0.0 10.0 0.0 0.0 0.0 10.0" Properties=species:S:1:pos:R:3:forces:R:3:stresses:R:6:energies:R:1 energy=-56.09091673270764 stress="-0.014010289823022489 -0.015838340205232098 -0.0032605696935590033 -0.015838340205232098 -0.0020852836494381984 -0.0060135930662840245 -0.0032605696935590033 -0.0060135930662840245 -0.0036452476165160196" free_energy=-56.09091673270764 pbc="F F F"
H        4.82259821       6.06502062       5.60369057       0.47923459      -0.63731766       1.69380065       0.00030983       0.00046989      -0.00103215      -0.00152345       0.00016413      -0.00021316      -4.18950785
H        4.79576412       4.06450297       4.11182659      -6.34038288      -1.83630224      -4.34244861       0.00093019       0.00022708      -0.00158940      -0.00077048      -0.00193456      -0.00076756      -2.14014573
H        4.53912218       5.28572617       6.46002346      -1.03993525       3.25803363       1.25943437       0.00041445       0.00102821      -0.00052723      -0.00140616       0.00030453      -0.00011585      -3.50406986
H        3.52813229       5.69834388       6.68788003      -1.78359653      -2.19966927       0.85582514      -0.00036141      -0.00046428      -0.00008488       0.00050314      -0.00013180      -0.00072988      -1.73225511
H        5.42266060       5.96602436       6.52264075      -0.55483567       0.08446550      -0.44167125       0.00106834       0.00034278       0.00057710       0.00040883      -0.00036291      -0.00020609      -2.74855399
H        5.43139305       5.07695808       5.84472149       3.94296220       1.25940483       3.25361929      -0.00182851       0.00122169      -0.00108250      -0.00133694       0.00005223      -0.00142039      -4.55012276
H        4.34917624       6.39470758       6.53788812       2.00247403      -0.30885275      -1.43481849       0.00032799       0.00035889       0.00052494       0.00082184       0.00083471      -0.00080202      -2.52046623
H        5.25308510       5.50808365       4.78347103      -0.05697957       8.09331919      -3.53548273       0.00131975      -0.00534870       0.00040696       0.00020099       0.00056495       0.00110090      -4.11223827
H        4.28021503       5.03251343       4.37333464       0.74486452      -3.09372040      -1.30421454       0.00273051       0.00263846      -0.00088126      -0.00041681       0.00025409       0.00016416      -3.47697529
H        3.72898628       5.83854495       5.61579951       1.32911187      -0.15728865       0.39232296       0.00104235       0.00108765       0.00150316       0.00082022       0.00139893       0.00057367      -2.99907507
H        6.29855692       5.84768402       4.46577676      -1.66540349      -0.74900483       0.44007256       0.00107464       0.00033944       0.00025106      -0.00022787      -0.00045944       0.00047062      -1.70691417
H        3.17727765       6.37493556       3.60563231       0.26996156      -0.37618777       0.35329506       0.00015537       0.00027384       0.00025212      -0.00019509       0.00014869      -0.00016324      -0.09305746
H        4.45350834       5.05592854       5.42034840      -2.35357824      -2.26718534      -0.00995674      -0.00365277      -0.00265692      -0.00570835      -0.00084394      -0.00162392       0.00042572      -4.72199318
H        6.15366888       4.89833344       5.03824650      28.45615085      13.45410148       4.50407062      -0.01221827      -0.00092821       0.00058312      -0.00056636      -0.00099351      -0.00607412      -2.38874705
H        3.42507194       4.81674080       5.10290689       2.47992102       0.06710800      -1.12937859       0.00116301       0.00198976       0.00165416       0.00109087      -0.00035328      -0.00015248      -2.70423603
H        5.26372392       4.48591509       4.95086167     -25.17002968     -22.18560975       3.19178012      -0.01210547      -0.00875365      -0.00311242      -0.00221383      -0.00176175      -0.00702693      -2.87856096
H        5.94612094       5.99716034       5.51262791      -0.94167432      -1.96520840       0.18281822       0.00098121       0.00139293       0.00044477       0.00065068      -0.00028083      -0.00009048      -3.17924880
H        3.61579002       4.09646128       4.19807755       3.37601651       2.78845018       2.30945652       0.00197517       0.00129220       0.00112043       0.00085244       0.00023582       0.00048376      -2.05763977
H        6.15058108       4.10677847       5.94708342      -3.13626643       4.53843238      -3.45622964       0.00148523       0.00216591       0.00163680      -0.00113301       0.00078335      -0.00117596      -1.29183770
H        4.25632883       4.01961448       5.12467329      -0.03801511       2.23303187      -2.78229491       0.00117808       0.00123776       0.00141833      -0.00072866      -0.00010002      -0.00011900      -3.09527143
