20
Lattice="10.0 0.0 0.0 0.0 10.0 0.0 0.0 0.0 10.0" Properties=species:S:1:pos:R:3:forces:R:3:stresses:R:6:energies:R:1 energy=-66.78883171656292 stress="0.0023133762580593697 -0.0008434562889162544 0.001288313822768357 -0.0008434562889162544 -0.0015815552321079842 0.0019885459307937697 0.001288313822768357 0.0019885459307937697 0.00032934114568678813" free_energy=-66.78883171656292 pbc="F F F"
H        4.97625472       5.90735274       5.47437306       0.27316937      -0.21028831      -0.16593614      -0.00122996       0.00040340      -0.00176309      -0.00093387       0.00046100       0.00062390      -4.77967923
H        4.56818315       4.69744479       4.14387719      -1.36495068       1.62199933      -0.45350134      -0.00138076       0.00030806       0.00075018       0.00085846      -0.00070945      -0.00094020      -3.21566210
H        4.58146999       5.26689676       6.31690523      -1.02913468      -0.78815420       0.09589692      -0.00003037      -0.00053248       0.00056996      -0.00015423       0.00026073       0.00047240      -3.88072826
H        3.68537526       5.79761128       6.73138325       0.23235569      -0.53968373       0.04478711       0.00054063       0.00024856       0.00029158       0.00040648      -0.00007782      -0.00000998      -1.78553695
H        5.56978540       5.79237794       6.39463587      -0.02291431       0.13816345      -0.26183509       0.00086628       0.00017830       0.00055446       0.00029240      -0.00037142      -0.00011561      -2.76914239
H        5.43630108       4.90714143       5.73900556      -2.23157641      -0.65963737      -0.44908343      -0.00052965      -0.00096899      -0.00050049      -0.00037257       0.00125678      -0.00038210      -4.76464686
H        4.59219483       6.36934773       6.39577736      -0.22979683       0.22111239       0.00228127       0.00067229       0.00000347       0.00021092       0.00027357       0.00034625      -0.00004698      -2.70586365
H        5.31083391       5.25675886       4.68474330       0.39940426       0.58429397      -0.22366162      -0.00188810      -0.00163893      -0.00127425      -0.00118052      -0.00038600      -0.00021182      -4.73759123
H        4.32004102       5.76925606       4.57926371      -0.52672257      -0.36067046       0.07096186       0.00116131       0.00080729       0.00104515       0.00083532      -0.00060398      -0.00014034      -3.92280678
H        3.90638990       5.84893304       5.65479922       0.83866377       1.29923221      -0.52009832      -0.00141958      -0.00040730      -0.00043022       0.00058937      -0.00053743      -0.00022538      -4.25171256
H        6.29851980       5.53919229       4.29219178       0.39169458       0.09624298      -0.27750619       0.00013085       0.00015810       0.00018577      -0.00004965      -0.00012176       0.00002007      -1.73908710
H        3.23112185       5.95924848       4.80635318      -0.23232166      -0.28708378      -0.22726841       0.00052693       0.00039532      -0.00046114      -0.00054650      -0.00023114      -0.00030138      -2.25415491
H        4.41300759       4.94266333       5.27054218       2.69030997       1.22143511       0.50972269      -0.00034070      -0.00200677       0.00041032       0.00021639       0.00074322       0.00003583      -5.55519061
H        6.18205885       4.65386860       4.96658856       0.07989062      -0.27950250      -0.06212247       0.00055889       0.00035045      -0.00022827       0.00057195       0.00010094       0.00039914      -3.18806062
H        3.32486066       4.96276302       5.35936244      -0.18755328      -0.33624093      -0.10604900       0.00033419       0.00089082       0.00068529       0.00007967      -0.00017054      -0.00016934      -2.98011087
H        5.13221483       4.18602557       4.94262711      -0.06053896      -0.55216281      -0.09160176       0.00185397       0.00029426      -0.00032900       0.00026208      -0.00003995       0.00081977      -3.66790491
H        6.06852876       5.71757231       5.36885653       0.11729463       0.16075088       0.34768987       0.00047013       0.00035657       0.00037803       0.00051175      -0.00001812      -0.00025661      -3.25536171
H        3.53156316       5.04165586       4.27748719       0.82934059      -0.09394957       0.22479677       0.00024235      -0.00087642       0.00041729       0.00000475       0.00127755       0.00043128      -2.98213765
H        5.87584308       3.88940993       5.71892483      -0.15339312       0.01615130       0.17423944       0.00028425       0.00041722       0.00006204      -0.00008849       0.00008346      -0.00020762      -1.74535078
H        3.88721378       4.12445772       4.78981335       0.18677903      -1.25200795       1.36828785       0.00149042       0.00003750      -0.00024517       0.00041220       0.00002599      -0.00063848      -2.60810256
