20
Lattice="10.0 0.0 0.0 0.0 10.0 0.0 0.0 0.0 10.0" Properties=species:S:1:pos:R:3:forces:R:3:stresses:R:6:energies:R:1 energy=-69.603003426049 stress="8.499986606111459e-05 0.00012587811684996566 8.773136768528604e-05 0.00012587811684996566 3.878636808646452e-05 2.9457411981063145e-05 8.773136768528604e-05 2.9457411981063145e-05 -7.049186100087785e-05" free_energy=-69.603003426049 pbc="F F F"
H        4.85246125       5.98059318       5.50055530       0.02820900       0.01559257       0.00035418      -0.00077370       0.00059328      -0.00095387      -0.00079562      -0.00077228      -0.00031215      -4.75543813
H        4.62830409       4.92410919       4.03918418       0.03065178       0.01377323      -0.01922756       0.00142481       0.00040888       0.00003777       0.00011279       0.00006698       0.00028216      -3.25909620
H        4.48382636       5.09807855       6.19033756      -0.02815857       0.08204444       0.01901202       0.00018247      -0.00014802      -0.00032166      -0.00127961       0.00053872       0.00039953      -4.25149727
H        3.40672659       5.27955062       6.38911133      -0.03007591      -0.01846716       0.00082294       0.00079265       0.00052639       0.00035205       0.00067868       0.00028818       0.00042844      -2.67943187
H        5.31229340       5.79794338       6.46961558       0.01741154      -0.00825725       0.02230018       0.00143644       0.00020690       0.00035808       0.00035012      -0.00066881       0.00005367      -2.74413750
H        5.46544122       5.01609982       5.69049783      -0.05323094      -0.07920309      -0.05385798      -0.00202238      -0.00039936       0.00048576      -0.00027235       0.00003959      -0.00069836      -4.70651143
H        4.20400616       6.13012067       6.39754078      -0.00914217       0.01746730       0.01117218       0.00157831      -0.00009712       0.00047246       0.00019328      -0.00006917       0.00047097      -2.73399680
H        5.38433751       5.52821293       4.64517436      -0.07644835       0.03937842      -0.02204254      -0.00089093      -0.00020696       0.00108312       0.00004467       0.00078652      -0.00001730      -4.73606564
H        4.33312770       5.89211160       4.50971158       0.00462825       0.03383679      -0.01155311       0.00079420       0.00033666       0.00031187      -0.00006912       0.00021123       0.00024914      -3.39368406
H        3.79524625       5.69140890       5.45871078       0.02012685      -0.08754170      -0.00470989      -0.00153797       0.00033426      -0.00093647      -0.00014502       0.00107512      -0.00066822      -4.64869247
H        6.36376040       6.01821507       4.48097055      -0.02925824      -0.05192721      -0.00099205       0.00033355       0.00024410       0.00014377      -0.00012250      -0.00019682       0.00013558      -1.72288784
H        2.83575349       5.16230812       5.39756275       0.01679648      -0.01505077      -0.00250816       0.00041645      -0.00027932       0.00100293       0.00022802      -0.00016818      -0.00003459      -2.21697220
H        4.56193616       5.00603347       5.12084253       0.00454918       0.07028493       0.05414702      -0.00610135      -0.00514898      -0.00617205      -0.00082619      -0.00011114      -0.00056904      -5.59498711
H        6.30355487       5.01747502       4.97946315      -0.01538912       0.02110386      -0.02069305       0.00048025       0.00052432      -0.00003918       0.00056404       0.00013923       0.00012785      -3.19300407
H        3.71853075       4.53365027       5.59915637       0.00320926       0.02211557       0.01912228      -0.00062854       0.00125365       0.00081892       0.00055403      -0.00003579      -0.00006245      -3.72292207
H        5.37369555       4.41605189       4.71351600       0.11068927      -0.02815329       0.03543894       0.00101954       0.00056479       0.00056515       0.00042232       0.00028982       0.00101890      -3.76604016
H        5.95891814       5.96976294       5.51942498      -0.01354628      -0.02279972      -0.01899373       0.00053398       0.00005084       0.00100919       0.00062934      -0.00008704      -0.00018861      -3.23506815
H        3.61869215       5.01292338       4.58142319       0.00384054       0.00915976       0.00477634       0.00081623       0.00078652       0.00093602       0.00013765      -0.00084122       0.00000629      -3.71925010
H        6.03633568       4.08250999       5.54124998       0.01544111      -0.02541413       0.00657534       0.00044997       0.00037972       0.00003573      -0.00014905       0.00004294      -0.00010960      -1.77052623
H        4.25481395       4.07281859       4.68346179      -0.00030367       0.01205747      -0.01914335       0.00178102       0.00010825       0.00073993      -0.00022604      -0.00044016      -0.00038634      -2.75279411
