20
Lattice="10.0 0.0 0.0 0.0 10.0 0.0 0.0 0.0 10.0" Properties=species:S:1:pos:R:3:forces:R:3:stresses:R:6:energies:R:1 energy=-69.57756025923595 stress="0.00020456340044237894 -0.001309026443760163 -0.00015031525357260629 -0.001309026443760163 -0.0005765842430373339 -0.0002367203400761282 -0.00015031525357260629 -0.0002367203400761282 -0.0016872737246926572" free_energy=-69.57756025923595 pbc="F F F"
H        4.89791255       5.97682037       5.47270602       0.28868885       0.40621298       0.28603518      -0.00102220       0.00046754      -0.00102117      -0.00088817      -0.00086906      -0.00030562      -4.73864456
H        4.62231704       4.87802438       4.05220727      -0.10326712      -0.14543951       0.30769289       0.00158704       0.00050973       0.00013218       0.00001671       0.00006546       0.00009386      -3.25535774
H        4.46647396       5.14012294       6.19006457       0.05492915       0.24236552       0.14938554       0.00047098      -0.00020577      -0.00035462      -0.00137077       0.00036728       0.00030225      -4.23963442
H        3.40266572       5.40929914       6.37162045       0.11705590      -0.01571055      -0.02065160       0.00087917       0.00045228       0.00031937       0.00060719       0.00026188       0.00036743      -2.68990708
H        5.33633210       5.79393544       6.44975693       0.23713995       0.16046938       0.32827764       0.00137080       0.00012995       0.00021351       0.00033839      -0.00068360      -0.00002544      -2.74766770
H        5.45067166       4.98116537       5.70201229      -0.59156666      -0.15534401       0.10381864      -0.00168512      -0.00038859       0.00030943      -0.00043718       0.00001711      -0.00071696      -4.72547670
H        4.25658079       6.19527560       6.36302748       0.14638471       0.17086112       0.09781910       0.00154509      -0.00018099       0.00040129       0.00019985      -0.00014076       0.00030292      -2.74273857
H        5.40180994       5.45844325       4.64180927       0.59038830      -0.30839660      -0.25048474      -0.00134865      -0.00020879       0.00088437       0.00000987       0.00086518      -0.00006335      -4.73498787
H        4.38253973       5.88341095       4.48062517      -0.13025062       0.34791927      -0.35110033       0.00064882       0.00019496       0.00025413       0.00003475       0.00016384       0.00023358      -3.39328037
H        3.82593522       5.76878976       5.43273161      -0.07149465      -1.02103210      -0.34623093      -0.00171893       0.00068102      -0.00078485      -0.00023759       0.00099205      -0.00069293      -4.63743106
H        6.40532700       5.88205598       4.46238132       0.28733243       0.35676626      -0.36941775       0.00023084       0.00005138       0.00002240      -0.00002515      -0.00014855       0.00005495      -1.72373294
H        2.83272369       5.30731415       5.38139374      -0.04076459      -0.09434250      -0.17409842       0.00038790      -0.00026637       0.00097195       0.00028434      -0.00020914      -0.00012523      -2.21613868
H        4.54608735       5.01273725       5.12774208      -0.23400272      -0.01039750       0.41795792      -0.00601334      -0.00538903      -0.00631034      -0.00076064      -0.00005579      -0.00078775      -5.58614601
H        6.29358616       4.91133456       4.99739762      -0.25004593      -0.20642717      -0.01494780       0.00060782       0.00027674      -0.00013920       0.00063930       0.00019623       0.00010247      -3.19281316
H        3.66379481       4.61995746       5.60870720       0.01689523      -0.02066860       0.32655392      -0.00065022       0.00128036       0.00054529       0.00053619      -0.00000126       0.00011235      -3.72305707
H        5.32541235       4.35025641       4.76842064      -0.22483933       0.17359939      -0.67767013       0.00132092       0.00058402       0.00039747       0.00020118       0.00030458       0.00093825      -3.77275950
H        6.00100600       5.89616035       5.49923410      -0.06564170       0.16139745       0.29767833       0.00048217       0.00003712       0.00085106       0.00061649      -0.00002854      -0.00021812      -3.23690098
H        3.60996257       5.06315354       4.57821618       0.11417849       0.03713609      -0.00061278       0.00094116       0.00087487       0.00091633       0.00036810      -0.00087306      -0.00013614      -3.71249769
H        5.98750636       4.01765217       5.59660401      -0.09629342      -0.01067421       0.19639985       0.00040477       0.00039905       0.00000263      -0.00008600       0.00003748      -0.00018252      -1.76269636
H        4.18311664       4.08406855       4.73085273      -0.04482626      -0.06829474      -0.30640454       0.00176554       0.00012394       0.00070151      -0.00028359      -0.00041164      -0.00056303      -2.74569181
