20
Lattice="10.0 0.0 0.0 0.0 10.0 0.0 0.0 0.0 10.0" Properties=species:S:1:pos:R:3:forces:R:3:stresses:R:6:energies:R:1 energy=-19.83233445467588 stress="0.0036872642140019065 -0.0006355546949103252 -0.0006358830443625291 -0.0006355546949103252 0.0027944633592201715 -0.0008220533782977363 -0.0006358830443625291 -0.0008220533782977363 0.00333216829466012" free_energy=-19.83233445467588 pbc="F F F"
H        5.25969992       5.97636618       7.05698703      -1.44391833      -0.16823299      -0.83061497       0.00163979       0.00016102       0.00023833       0.00013605      -0.00054897      -0.00053009      -1.92236289
H        3.94516414       3.46709668       4.19696155      -1.72225780      -0.37911249       1.66930884       0.00116044       0.00092798       0.00084670      -0.00066055      -0.00017099      -0.00020405      -1.06359119
H        4.06391303       5.88721860       6.88969351       1.63852662       0.49381156       0.78043211       0.00136597      -0.00042349      -0.00014777      -0.00015230       0.00044788       0.00029251      -2.45113398
H        3.26412128       5.19816128       7.26203046       0.52728025      -0.24747582       0.10306572       0.00029435       0.00007114       0.00000550       0.00011212      -0.00019697       0.00014981      -1.11751700
H        6.34511467       5.75666272       7.16824832       0.26353093      -0.13256471      -0.01759514      -0.00000586       0.00000386       0.00003442       0.00000843       0.00007404       0.00010702      -1.05639850
H        5.87780835       5.32885764       6.24444502       2.95500135       1.29549174       1.19025810      -0.00178903       0.00045685       0.00063783       0.00048558      -0.00042926      -0.00047853      -1.42318107
H        3.69423012       6.93823935       6.93143858      -0.14198422      -0.51271635      -0.04552307       0.00037599       0.00037464       0.00003892       0.00000685       0.00001465       0.00005677      -1.11483011
H        5.60016663       5.58023886       3.23914118       0.35303542       0.87329399      -0.48472306       0.00007272      -0.00028761      -0.00011861       0.00022268       0.00006476      -0.00003297      -1.01354552
H        2.86233853       4.88040297       4.05973331       0.31003303      -0.14876380       0.01037685       0.00020246       0.00021933       0.00004006      -0.00003755       0.00001559      -0.00018345      -0.57096852
H        2.97602217       6.10169348       6.67995623       0.65259339       0.68732511      -0.19167272       0.00046045      -0.00004989      -0.00004953       0.00019792       0.00000767       0.00009283      -1.52529169
H        7.28081947       6.89237846       2.89802782      -0.52410775      -0.46325763       0.52205792       0.00021901       0.00020632       0.00029342      -0.00008296      -0.00014308       0.00020226      -0.55017196
H        2.89335146       7.16717853       3.10709233      -0.00051990      -0.03833565       0.01597014       0.00000001       0.00004383       0.00000761      -0.00001826      -0.00000025       0.00000059      -0.00587227
H        4.80542770       5.31183014       6.30784445      -4.43591120      -1.48380050      -1.11262436      -0.00215267      -0.00033834      -0.00039162      -0.00045957       0.00005879      -0.00004831      -1.58948471
H        6.56836409       6.13652931       3.35558569       0.36876689       0.51352682       0.13135219       0.00024628       0.00037896       0.00031357       0.00003803      -0.00004695       0.00029248      -1.08467797
H        3.58170425       2.90501443       6.16282514      -0.02589765       0.14746205      -0.11228274       0.00002054       0.00008989       0.00017140      -0.00007031       0.00001854       0.00000087      -0.53980033
H        5.30340354       4.67520645       3.80455510      -0.42992536      -0.85238119       0.58945417       0.00027671      -0.00011850      -0.00004365       0.00016295      -0.00001165       0.00011835      -0.58552038
H        6.98100780       7.09778915       4.76829655      -0.09773106      -0.31398950      -0.58053333       0.00004840       0.00015701       0.00052312       0.00018037       0.00003284       0.00007353      -0.11095289
H        2.82707556       3.78081517       4.26911444       1.91271087      -0.93796541       0.25250227       0.00106842       0.00018374       0.00017818      -0.00014028       0.00009864      -0.00041885      -1.06694080
H        6.90105607       2.84561112       6.40917378      -0.00888749       0.02156842      -0.00143076       0.00000455       0.00002678       0.00000012      -0.00000178       0.00000073      -0.00001103      -0.00251495
H        3.86097282       2.70268719       5.09636041      -0.15033799       1.64611634      -1.88777815       0.00017872       0.00071095       0.00075417      -0.00074949       0.00007809      -0.00011527      -1.03757774
