20
Lattice="10.0 0.0 0.0 0.0 10.0 0.0 0.0 0.0 10.0" Properties=species:S:1:pos:R:3:forces:R:3:stresses:R:6:energies:R:1 energy=-69.0338830628244 stress="0.003245235546928128 -0.0038872157381408304 0.001025564435180094 -0.0038872157381408304 0.004944307169487814 -0.0014776287242830397 0.001025564435180094 -0.0014776287242830397 0.0001800091926944759" free_energy=-69.0338830628244 pbc="F F F"
H        5.02447161       5.94902844       5.41563233       0.37818880       0.41365185      -0.06532251      -0.00053565       0.00005472      -0.00009662      -0.00074589      -0.00080546       0.00000223      -4.72511301
H        4.59893474       4.73083296       4.12980875      -1.39745205       0.28179491      -0.40881900       0.00131248       0.00095011      -0.00016491      -0.00016815      -0.00009570      -0.00060879      -3.24799172
H        4.44632854       5.22607759       6.21220685      -2.27554250       2.71950740       0.25013022       0.00250118       0.00080455      -0.00001511      -0.00131296       0.00073892       0.00035658      -4.05399059
H        3.42684179       5.75784565       6.28634588       0.63666692      -1.17776328      -0.36300818       0.00163036       0.00041455       0.00045562       0.00057702       0.00063400      -0.00037303      -2.65862703
H        5.42591151       5.79474014       6.42370508      -0.77377246      -0.16098173      -0.95335895       0.00202305       0.00026302       0.00072934       0.00030824      -0.00051064       0.00006178      -2.67983635
H        5.39697382       4.93233833       5.73762995       0.62302070      -0.19052008       1.01016426      -0.00209306      -0.00140968      -0.00049899      -0.00070683      -0.00006087      -0.00030833      -4.75915224
H        4.41713428       6.32310531       6.27185588       0.46721761      -0.20273140       0.12064178       0.00123308       0.00012399       0.00026516       0.00035495      -0.00001802      -0.00013962      -2.78347920
H        5.42376746       5.26338109       4.64179606       1.55767576      -1.34296892       1.11263188      -0.00202253       0.00004418       0.00047218      -0.00020844       0.00001091       0.00034967      -4.74553749
H        4.51676130       5.83629436       4.40804645      -0.13295546       0.52615979      -0.34747891       0.00002692       0.00035550       0.00059816       0.00032129       0.00014873       0.00017632      -3.38317975
H        3.92951991       5.95789301       5.34462689       2.48394078      -2.00972632      -1.11673606      -0.00245854       0.00137752      -0.00037923      -0.00039845       0.00094349      -0.00040642      -4.50294518
H        6.47734814       5.47152535       4.38134043      -0.13811749      -0.01797996       0.63694444       0.00034596       0.00022520       0.00051665      -0.00005339      -0.00031825       0.00004111      -1.72064419
H        2.88519058       5.71222129       5.23156345      -1.70498091      -0.53146595       1.03149527      -0.00059965      -0.00011493       0.00114547       0.00019843       0.00016677      -0.00049402      -2.16401324
H        4.49531990       5.03936457       5.16249257      -0.12933351      -0.71134715      -1.27837997      -0.00476522      -0.00418550      -0.00609984      -0.00068701      -0.00006717      -0.00133293      -5.64010272
H        6.21613088       4.62079051       5.06549323       0.15448829       0.26175776      -0.16428729       0.00048291       0.00040082      -0.00015008       0.00036704       0.00014570       0.00004851      -3.20408516
H        3.51932008       4.87886351       5.59464662       1.03576627       0.91322488       1.58498813       0.00017304       0.00134508       0.00039664       0.00045600       0.00055067       0.00070309      -3.69276936
H        5.17730471       4.18973187       4.95020985      -2.40898350       1.77214254      -1.99180944       0.00200057       0.00126369       0.00013408      -0.00037971      -0.00004960       0.00009194      -3.76709677
H        6.10834205       5.69538265       5.42261373      -0.44086396       0.28446381       0.52084843       0.00073508       0.00029004       0.00127333       0.00059513      -0.00033275      -0.00033002      -3.18884365
H        3.60694185       5.20657862       4.53118151       1.99411293      -1.52048275       0.88889753       0.00116888       0.00156520       0.00087054       0.00049880      -0.00001472      -0.00066715      -3.65628338
H        5.80782465       3.90970898       5.82520347      -0.07709007      -0.07149582       0.16763647       0.00032187       0.00036237       0.00008990      -0.00012270       0.00006201      -0.00014130      -1.75961067
H        3.99139381       4.13427351       4.87111196       0.14801386       0.76476042      -0.63517811       0.00176452       0.00081388       0.00063771      -0.00037098      -0.00010246      -0.00091684      -2.70058137
