20
Lattice="10.0 0.0 0.0 0.0 10.0 0.0 0.0 0.0 10.0" Properties=species:S:1:pos:R:3:forces:R:3:stresses:R:6:energies:R:1 energy=-53.689159515126555 stress="0.01853936764799508 0.004756674484990301 0.001093981655293516 0.004756674484990301 0.00823277593797731 -0.005178763934765536 0.001093981655293516 -0.005178763934765536 0.015497847384086662" free_energy=-53.689159515126555 pbc="F F F"
H        4.89655014       5.99761621       5.66997474      -2.48569498       0.83682953       5.46734607       0.00000052       0.00053413      -0.00144168      -0.00136628       0.00021451       0.00017479      -4.14941148
H        4.40718227       4.05661074       3.93133169       5.57345771      -2.99208321       1.54602991      -0.00155410      -0.00112710       0.00154889       0.00001508       0.00081818       0.00103254      -2.05214313
H        4.49233950       5.25978370       6.47270088       3.48067001      -2.81531514      -3.20805467       0.00187681      -0.00161072       0.00079417      -0.00113967      -0.00040087       0.00024054      -3.49147232
H        3.49171137       5.61442057       6.79415642       1.45840859       1.17597638      -0.18112766       0.00094974       0.00048929       0.00028856       0.00014274      -0.00024109       0.00069162      -1.63730835
H        5.49603266       5.79565827       6.57328465      -1.80972793       0.59341059      -0.23423120       0.00174070       0.00021900       0.00058945       0.00006624      -0.00038098       0.00007164      -2.69882819
H        5.51675729       4.99792249       5.80631137      -0.99736926       2.44126136      -3.76918156       0.00198983       0.00236407       0.00241237      -0.00008290      -0.00088732      -0.00028965      -3.88009119
H        4.45227473       6.31326673       6.66416466      -1.02738915       0.99424717      -2.01303375       0.00238334      -0.00121827       0.00146009       0.00036364       0.00009443       0.00042719      -2.44951133
H        5.27791935       5.51531743       4.80578221       4.11962415      -5.76451116      -3.18680623       0.00293191       0.00193218      -0.00020644      -0.00113008       0.00169086       0.00150525      -3.99193697
H        4.31495358       5.07109856       4.31011161       1.66282983       0.01837461       4.93100092       0.00224881       0.00073575       0.00157579      -0.00093988       0.00089551       0.00044704      -3.50390875
H        3.79583660       5.84546472       5.75170635       4.38388501       0.21179288       2.41266622       0.00139089       0.00061974       0.00089021       0.00015206       0.00047812      -0.00085880      -3.16233644
H        6.21649744       6.09643083       4.43707472      -2.06585721      -2.43039221       3.15738752       0.00110947       0.00104721       0.00148994      -0.00068875      -0.00066652       0.00054184      -1.60409156
H        2.99527455       6.72820238       3.31939507       0.06598448      -0.12448324       0.09876195       0.00003918       0.00011119       0.00007620      -0.00007672       0.00004243      -0.00005225      -0.02423631
H        4.49437266       5.00198267       5.41279173       0.50801513       3.97642203       0.29294916      -0.00143334      -0.00179720      -0.00112975      -0.00059662      -0.00094515      -0.00107208      -4.75461397
H        6.35689751       5.10164980       5.00285917      -5.16966220       1.79623565       0.91692947       0.00282218       0.00147352       0.00110655      -0.00009755      -0.00048019      -0.00019897      -2.26491329
H        3.46175169       5.08712390       5.04005675      -1.02123168      -1.55840066      -2.44687653       0.00015364      -0.00026607       0.00061793       0.00009262      -0.00031140      -0.00001003      -2.79602889
H        5.12432274       4.28619780       4.84088212      -0.81964815       5.84004448      -0.66265319       0.00231510       0.00326101       0.00208382       0.00056499       0.00152472       0.00038459      -3.00235544
H        6.00660619       6.02487074       5.57246985      -2.18522599      -3.41718882      -1.65271591       0.00122676       0.00154096       0.00207518       0.00022953      -0.00020737       0.00085196      -3.08397936
H        3.40891611       4.39240418       4.12508791      -3.33182326       3.35098371       2.02122309      -0.00151575       0.00037043       0.00048409       0.00047450       0.00069699       0.00123879      -2.05523831
H        6.65890986       3.31454823       6.36586570      -0.14668252       0.23217632      -0.12194924       0.00009626       0.00020550       0.00007216      -0.00009346       0.00005848      -0.00011739      -0.04359803
H        4.02665535       4.12940779       5.01150330      -0.19256257      -2.36538026      -3.36766434      -0.00023257      -0.00065188       0.00071032      -0.00106826      -0.00089934      -0.00025195      -3.04315622
