20
Lattice="10.0 0.0 0.0 0.0 10.0 0.0 0.0 0.0 10.0" Properties=species:S:1:pos:R:3:forces:R:3:stresses:R:6:energies:R:1 energy=-67.03511445220717 stress="0.005638960208257263 -0.0029051796172707436 0.0008437170251513041 -0.0029051796172707436 -0.0030600175905961887 0.0023419861199920327 0.0008437170251513041 0.0023419861199920327 -0.0018551605292429242" free_energy=-67.03511445220717 pbc="F F F"
H        5.00427447       5.92491348       5.44696648      -0.45817974       0.32523313      -0.19501451      -0.00186358       0.00066990      -0.00006628      -0.00034215       0.00013633       0.00042108      -4.74009473
H        4.56639054       4.68104221       4.17647741      -2.05271529       2.36438871      -1.89966773      -0.00052774       0.00060787      -0.00033367       0.00084569      -0.00062863      -0.00033723      -3.26758404
H        4.54069036       5.28479719       6.26871886      -1.06057429      -0.72924800       1.08669296      -0.00029181      -0.00111619      -0.00041071      -0.00100424       0.00078646       0.00081385      -3.92138637
H        3.56296001       5.70467585       6.55075553      -0.44356370      -0.39666284       0.11513488       0.00054044       0.00072955       0.00036983       0.00094544       0.00041157       0.00066779      -1.99453417
H        5.52697129       5.80452886       6.40115857      -0.53206640      -0.16292210      -0.29458300       0.00127121       0.00054542       0.00044821       0.00052484      -0.00043663      -0.00027841      -2.75227657
H        5.41226232       4.90539543       5.74353973       0.23277075       0.49376848       0.15489859      -0.00157621      -0.00090350      -0.00039952      -0.00064860       0.00085186      -0.00031218      -4.75187593
H        4.51684351       6.37082325       6.37806146       1.02415225      -0.18540115      -0.10542282       0.00160930      -0.00012827       0.00056508       0.00021977      -0.00064479      -0.00019338      -2.65345447
H        5.35646721       5.25563939       4.66862745      -0.72503366       0.76732174      -0.29993265       0.00011038      -0.00074864      -0.00013245      -0.00086248      -0.00000492      -0.00043614      -4.74652104
H        4.32007834       5.77510536       4.52318006       1.01350361       0.18187924      -0.43355463       0.00290396       0.00062356       0.00046070       0.00100210       0.00008432      -0.00058253      -3.79605572
H        3.93551167       5.92161475       5.55709194       0.77746543       1.16660654      -0.54623515      -0.00325421      -0.00065798      -0.00254142       0.00035317      -0.00030017      -0.00107888      -4.22837337
H        6.39070070       5.49947573       4.33576044      -0.53346185       0.57617338       0.35847663       0.00056451      -0.00005506       0.00045762       0.00018060      -0.00036143       0.00006175      -1.72254689
H        3.18051560       5.95345959       4.78863408      -0.16364156      -0.01757345      -0.13781776       0.00082585       0.00007400      -0.00035991      -0.00115690      -0.00064815      -0.00030998      -2.14023593
H        4.43976321       4.98316519       5.23742358       1.17324867      -0.50961861      -0.52433046      -0.00094816      -0.00270324      -0.00263632       0.00013306       0.00031511      -0.00076425      -5.60505044
H        6.21088663       4.64705042       5.01993206      -0.46807274      -0.70095254      -0.03395175       0.00073048      -0.00027352      -0.00043247       0.00070077       0.00020403       0.00002772      -3.19448088
H        3.37316695       4.99369093       5.46046671      -0.27097196       0.12039845       0.51445081       0.00041183       0.00124324       0.00208882       0.00038891       0.00029576      -0.00054587      -3.20760413
H        5.16694563       4.19095995       4.94286980      -0.37805237      -1.08014246       1.18400186       0.00207002       0.00030246      -0.00069714       0.00027765      -0.00047551       0.00038090      -3.65083270
H        6.08384908       5.69638336       5.40484421       0.73556248       0.53941475      -0.25036999       0.00018815      -0.00000566       0.00082034       0.00046742      -0.00005041      -0.00014556      -3.25595826
H        3.52023468       5.01731916       4.35799352       2.44006454      -1.32404773       0.38364293       0.00081621      -0.00148748       0.00066918       0.00000071       0.00133137       0.00067732      -3.07881935
H        5.87797276       3.89979724       5.76986988      -0.72645269      -0.04710777      -0.12340299       0.00042538       0.00035319       0.00019748      -0.00007887       0.00033075      -0.00029045      -1.74258255
H        3.90527664       4.12014039       4.87513913       0.41601851      -1.38150778       1.04698477       0.00163294      -0.00012966       0.00007747       0.00039509      -0.00035318      -0.00068074      -2.58484692
