20
Lattice="10.0 0.0 0.0 0.0 10.0 0.0 0.0 0.0 10.0" Properties=species:S:1:pos:R:3:forces:R:3:stresses:R:6:energies:R:1 energy=-37.554912057975514 stress="-0.015183044477376732 -0.006932330448579299 0.00035686166343714196 -0.006932330448579299 -0.003943813586581131 0.0014180469950969784 0.00035686166343714196 0.0014180469950969784 -0.0229113719195959" free_energy=-37.554912057975514 pbc="F F F"
H        5.03939251       5.79457350       5.82982084       0.38417061       2.24586866       1.18662248       0.00164136      -0.00004097       0.00199644       0.00082126       0.00005872      -0.00119731      -2.40447040
H        4.30295632       3.93350283       4.09264623      -2.51403876       2.22281668       1.66050217       0.00001546       0.00164247       0.00129116       0.00021308      -0.00100362      -0.00055834      -2.08609050
H        4.49927151       5.35171753       6.66883914      -0.41310004      -3.51067329      -1.65151436      -0.00201075      -0.00123799      -0.00127159      -0.00043067       0.00089644      -0.00118660      -3.52459058
H        3.48675409       5.33730847       7.04637747      -1.76067557       0.22256734       3.01949927      -0.00068457       0.00074543      -0.00096979       0.00064808       0.00040558       0.00054684      -1.45042950
H        5.12851018       6.04355810       7.20586442       5.29200206      -0.47985978       0.84343534      -0.00181650      -0.00039846       0.00078855       0.00034948      -0.00115288      -0.00006764      -1.42372892
H        5.46767587       4.83977633       6.36785571      -2.16017581       2.73035562      -0.82502632       0.00105251       0.00163203       0.00121658       0.00011977       0.00021668      -0.00073033      -1.84369425
H        4.20547220       6.41775321       6.79794106      -3.31244573      -0.27564524      -1.76440458      -0.00092878       0.00072420       0.00017602       0.00037146      -0.00149872       0.00084121      -2.03321342
H        5.24592587       5.19386610       3.91425193      -1.38904051       0.23569613       1.37220504       0.00251052       0.00075231       0.00072976      -0.00004234      -0.00063395       0.00093786      -1.80662880
H        4.12357273       5.10582034       4.36664875      16.99859631       0.81322435     -27.93056572      -0.00231563       0.00156671      -0.01058114       0.00106325       0.00601909      -0.00055154      -2.14250560
H        3.63208599       5.80090395       6.07877005       3.73454366      -1.67756576      -4.80466976       0.00201483       0.00067550      -0.00070040       0.00111670      -0.00014843      -0.00109080      -2.53200123
H        6.43100692       6.14214507       3.52939782      -0.61675209      -0.18293449      -0.26177574       0.00044052       0.00015215      -0.00015176       0.00004691      -0.00011467       0.00031460      -1.12685929
H        2.93299544       6.89517113       3.21837306       0.03841209      -0.06512954       0.04243465       0.00002649       0.00006360       0.00002878      -0.00004082       0.00002176      -0.00003489      -0.00891583
H        4.56556018       4.82903971       5.70110899      18.07825667       6.81780826      13.74783513      -0.00798239      -0.00587322      -0.00297498      -0.00214368      -0.00459994      -0.00203015      -2.99939511
H        6.23431548       5.48185539       4.40203473      -1.80053362      -1.05670673       0.67704296       0.00104346       0.00016357       0.00016070       0.00014253      -0.00007954       0.00039296      -1.67869816
H        3.68312930       5.02399616       5.24260303     -28.11806711       2.69373593      22.43575307      -0.00898952      -0.00027910      -0.01345090       0.00250352       0.00238951       0.00079139      -1.92252815
H        4.96343654       4.50201584       4.74038256       3.38299708       1.41171608       1.25924212       0.00007138      -0.00031831      -0.00113077      -0.00004670      -0.00039166      -0.00015868      -2.96869879
H        6.70622812       6.48828767       4.56106535      -0.23398721      -0.19096498       0.02221622       0.00018382       0.00012226       0.00006435      -0.00000252      -0.00002310       0.00013876      -1.03809074
H        3.31387853       4.34985441       4.45261845       1.89788192      -1.89721065       0.86418492       0.00126510      -0.00020287       0.00054951      -0.00043003       0.00063386      -0.00054967      -2.08575123
H        6.80197420       3.09411191       6.41532853      -0.07782137       0.09105213      -0.01429516       0.00005898       0.00007815       0.00000874      -0.00001094       0.00001327      -0.00006620      -0.01626376
H        4.12761962       4.00472009       5.27558279      -7.41022258     -10.14815070      -9.87872173      -0.00077934      -0.00391128       0.00130937      -0.00283029      -0.00065153      -0.00267379      -2.46235779
