20
Lattice="10.0 0.0 0.0 0.0 10.0 0.0 0.0 0.0 10.0" Properties=species:S:1:pos:R:3:forces:R:3:stresses:R:6:energies:R:1 energy=1329.251500695387 stress="-8.779816307026566 5.905958990227277 -0.12666293817624377 5.905958990227277 -7.201290840511797 -0.10419096544310177 -0.12666293817624377 -0.10419096544310177 -1.027607371176903" free_energy=1329.251500695387 pbc="F F F"
H        5.89542808       6.66439408       7.01688169      -0.38585224      -0.82922950      -0.42943161       0.00036368       0.00046061       0.00017009       0.00016507       0.00013835       0.00015460      -0.58253490
H        3.62861017       3.21876482       4.28137431   11686.61779406   -6401.97676548     982.55452003      -3.30189839      -1.21290338      -0.17592511       0.35190093      -0.43928550       1.93820714     373.50455183
H        3.45079660       5.54379860       6.72871620    4975.07946679   -6839.25724878   -2514.13106242      -0.89372333      -2.13285250      -0.25745832      -0.46904981       0.46966913       1.07484851     257.85895119
H        2.89708732       5.16323909       7.13763107    -680.85443694    -486.75224083     505.02958854      -0.18749125      -0.09871732      -0.10277140       0.09779397       0.13876150      -0.13100928      27.16180202
H        7.15762022       5.17415193       7.36837968      -0.27693711       0.16265155      -0.12125194       0.00021799       0.00015491       0.00004623      -0.00003256       0.00009265      -0.00012888      -0.05982627
H        5.40912163       5.78813237       6.48259407     381.29139523     254.00040779     120.81757353      -0.12644924      -0.05587293      -0.01252211      -0.02655419      -0.04004852      -0.08437849      12.62683777
H        3.54160961       6.86300872       6.86518355     115.32243945     205.77935574      -5.16709029      -0.02399003      -0.07733183      -0.00000526       0.00202110       0.00099097      -0.04371350       5.88375387
H        5.18960254       5.41375798       3.19148261    -245.08081419     389.10780477    -304.19073134      -0.04438485      -0.11225664      -0.06867683       0.08782471      -0.05538515       0.07091439      15.43735311
H        2.56706300       5.05809515       4.05506278       0.33455002      -0.78243791       0.08011317       0.00012213       0.00070837       0.00004137      -0.00009496       0.00002401      -0.00023219      -0.13585287
H        3.12132952       6.10389581       6.88317744   -4406.98918835    7119.69448321    2013.41447162      -0.73248356      -2.13556234      -0.15638966      -0.55942550       0.33352958       1.15706192     237.41928199
H        7.43293698       7.12750342       2.63162037      -0.70848459      -1.58644856       1.03003471       0.00017563       0.00085654       0.00038277      -0.00052417      -0.00024126       0.00037936      -0.28377317
H        2.89950073       7.22325170       3.08327943       0.00308757      -0.05544617       0.02170568       0.00001305       0.00005857       0.00001034      -0.00002341      -0.00000297      -0.00000150      -0.00824141
H        4.74282326       5.34506907       6.27214792    -383.14702559    -252.86432716    -119.52878294      -0.12544427      -0.05586025      -0.01240279      -0.02648442      -0.04058444      -0.08465689      12.82999214
H        6.96467888       6.05428165       3.29720655       0.25104213       1.38872260      -0.85949961       0.00052087       0.00102110       0.00041223      -0.00049419      -0.00024538       0.00057210      -0.37295232
H        3.57536793       2.72550868       6.47757724       0.08689504       0.06760073      -0.76777330       0.00001980       0.00008373       0.00066841      -0.00000944      -0.00007322      -0.00000788      -0.11752809
H        5.55371718       4.83633739       3.64303249     245.46008941    -388.86473603     304.20316242      -0.04448269      -0.11218783      -0.06863546       0.08780168      -0.05543631       0.07096622      15.43531666
H        7.06929105       7.32621468       5.02967292      -0.03804834      -0.09656493      -0.07957196       0.00002839       0.00005680       0.00018400       0.00003709      -0.00003939       0.00002220      -0.03422373
H        3.07275637       3.53967836       4.21413661  -11831.19386175    6830.39983850   -1430.21951624      -3.28795103      -1.09491260      -0.04772057       0.22911227      -0.39736062       1.89784110     355.12039425
H        6.90888892       2.78713109       6.39696275       0.00293678       0.02818365       0.01146956       0.00000037       0.00003364       0.00000557       0.00001369       0.00000143       0.00000351      -0.00387792
H        3.81353159       2.67376314       4.85139122     144.22495260    -427.56360321     448.33207240      -0.01297956      -0.11626749      -0.12702087       0.12183116      -0.04116780       0.03911656      17.57207654
