20
Lattice="10.0 0.0 0.0 0.0 10.0 0.0 0.0 0.0 10.0" Properties=species:S:1:pos:R:3:forces:R:3:stresses:R:6:energies:R:1 energy=-67.72159954046373 stress="-0.004534850068033176 -0.0033551237519533106 -0.0019093642039338934 -0.0033551237519533106 0.005616625343906934 -0.0030017587954962502 -0.0019093642039338934 -0.0030017587954962502 0.0001078741547905501" free_energy=-67.72159954046373 pbc="F F F"
H        5.01356219       5.93265566       5.44713226       1.42192060      -0.48150479      -1.45538818      -0.00277980       0.00016954      -0.00064040      -0.00089689       0.00009675       0.00110550      -4.70723605
H        4.69199521       4.73064892       4.08624835      -4.53977605       1.10496294       0.52182574       0.00131183       0.00137768       0.00033858       0.00009420      -0.00108981      -0.00045739      -3.14613751
H        4.39821608       5.23449241       6.17217874       3.33779490       2.33423426       2.48475513      -0.00068648       0.00015769      -0.00078554      -0.00147834      -0.00014173       0.00059411      -4.19984968
H        3.45561963       5.77254619       6.35791455      -0.14322336       2.78255223       1.34107117       0.00075946      -0.00060503       0.00003853      -0.00048276       0.00031362       0.00052458      -2.32248447
H        5.39911427       5.72822746       6.45731284       0.39606665       0.34057509       0.62170382       0.00114765      -0.00056267       0.00017014      -0.00013936      -0.00031770       0.00045754      -2.74183788
H        5.35363833       4.90751018       5.74856390      -1.28460564      -2.74080433      -2.02100149      -0.00176150      -0.00172071      -0.00023387      -0.00115125       0.00058741      -0.00034791      -4.77804955
H        4.47383541       6.32464934       6.31522526      -2.48094717       0.73728002       1.00232386       0.00051775      -0.00005844      -0.00019075       0.00013847       0.00020037       0.00056576      -2.75372322
H        5.42591730       5.30186115       4.66032891       1.47036788      -1.92629993       2.29689083      -0.00072685       0.00060169       0.00066086      -0.00112766       0.00014991       0.00001790      -4.71155014
H        4.47674961       5.85602074       4.42029612       0.86130796      -0.93900237       0.09761744       0.00146593       0.00096551       0.00100803       0.00075873       0.00032768      -0.00020115      -3.35605662
H        3.94788683       5.98061641       5.39451921      -3.04972081      -1.69535600      -1.99678765      -0.00228786       0.00089367       0.00041014       0.00049118       0.00066054      -0.00060266      -4.45430524
H        6.50824123       5.48023882       4.50645323       0.06916787       0.53493671      -0.19214532       0.00039936      -0.00008482       0.00014598       0.00011473      -0.00020680       0.00000202      -1.72787895
H        2.93118873       5.83692882       4.95793153       2.90368503      -2.30254464       2.04012890       0.00157653       0.00099588       0.00137299      -0.00052792       0.00052224      -0.00086501      -1.85658638
H        4.46549249       5.02914162       5.12164565       7.58253010       0.37467362       2.42719239      -0.00459470      -0.00314663      -0.00572505       0.00008828      -0.00088881      -0.00117034      -5.61202889
H        6.17911223       4.59978977       5.09331100       1.01782515       1.20901213       0.52489312      -0.00024189       0.00062849      -0.00011266       0.00050604       0.00033777      -0.00056717      -3.19844869
H        3.50333808       4.98916262       5.60271862      -4.56734626      -2.82779975      -5.29205448      -0.00105595       0.00053283       0.00044344      -0.00072038       0.00001717      -0.00105485      -3.47556323
H        5.17322902       4.18452686       4.91786867      -1.94972780       1.97873074      -0.09986019       0.00037453       0.00171437      -0.00027401       0.00019066      -0.00055132      -0.00003220      -3.77384257
H        6.08061004       5.68108606       5.52066062       0.75222962      -0.76988046      -0.65225164       0.00003750       0.00060612       0.00112156       0.00084828       0.00011392      -0.00024964      -3.20741954
H        3.63496487       5.10499739       4.46723813      -1.26054665       0.46252840      -0.59718930       0.00006912       0.00169325       0.00086936       0.00081422      -0.00142624      -0.00011860      -3.39478979
H        5.73981095       3.86719029       5.82393242      -0.16496720       0.59712431      -0.12519133       0.00040799       0.00068189       0.00018284      -0.00020580       0.00005035      -0.00016929      -1.76380377
H        4.03923909       4.08768704       4.83603094      -0.37203482       1.22658181      -0.92653282       0.00153253       0.00077630       0.00130769      -0.00031620      -0.00066470      -0.00078634      -2.54000737
