20
Lattice="10.0 0.0 0.0 0.0 10.0 0.0 0.0 0.0 10.0" Properties=species:S:1:pos:R:3:forces:R:3:stresses:R:6:energies:R:1 energy=-17.951554650283555 stress="0.009737333286086015 0.0022875560776326504 -0.0007939280185881852 0.0022875560776326504 0.006903417475738066 -0.001820941124349217 -0.0007939280185881852 -0.001820941124349217 0.004072761621639032" free_energy=-17.951554650283555 pbc="F F F"
H        5.74484178       6.20546419       7.03347524      -1.22718831      -1.31857390      -0.60645154       0.00101992       0.00056867       0.00016749       0.00024044       0.00031247       0.00046123      -1.27958744
H        3.90987781       3.41646696       4.21444898      -1.39625481      -0.80009409       1.80743438       0.00093056       0.00098123       0.00095492      -0.00081484      -0.00012377      -0.00015028      -0.99543094
H        3.86538055       5.91369411       6.90147705       0.45243483       0.92917530      -0.42138363       0.00081196       0.00046005       0.00004344       0.00008110      -0.00003247      -0.00049333      -2.03443998
H        3.10827628       5.12494730       7.11946368       0.79728597      -1.89186413       0.58336618       0.00012905      -0.00075094      -0.00008223       0.00033177      -0.00020645       0.00027751      -1.08267370
H        6.62871112       5.51008394       7.13333411      -0.60829452       0.17421360      -0.24487939       0.00037859       0.00011099       0.00009151      -0.00000218       0.00011993      -0.00007455      -1.03084773
H        5.89593623       5.37922939       6.28903485      -1.17550245      -0.00480293       0.39992010       0.00084403       0.00006073       0.00013911      -0.00000070      -0.00014688       0.00001119      -1.50714228
H        3.47985354       6.98717464       6.84983980      -0.35247191      -2.14230661      -0.03329683       0.00045383       0.00118389       0.00001342       0.00000200       0.00002620       0.00012164      -1.04444265
H        5.68083931       5.62332320       3.18348610      -0.52758832      -1.68586854       1.13320578       0.00036354       0.00099435       0.00034637      -0.00054780      -0.00024479       0.00052386      -0.93850790
H        2.70963784       4.88501131       4.06420988       0.18617781       0.00988777      -0.00406098       0.00014119       0.00010377       0.00002637      -0.00001966       0.00000924      -0.00011778      -0.54719703
H        2.75773358       6.09782549       6.75963222       0.66880294       2.61872881      -0.53833174       0.00051803      -0.00044905      -0.00009639       0.00037343      -0.00005997       0.00057077      -1.48556096
H        7.33286216       6.94592373       2.79135711      -0.54647281      -0.62004201       0.43481465       0.00021691       0.00027728       0.00018119      -0.00012907      -0.00013418       0.00023683      -0.52663815
H        2.89616516       7.19437586       3.09551745      -0.00280784      -0.03476338       0.01458194       0.00000026       0.00004014       0.00000706      -0.00001684      -0.00000136       0.00000324      -0.00520295
H        4.77697433       5.33251836       6.55075162       1.47939285       1.58244994       0.74645228       0.00216615       0.00069981       0.00029780       0.00033654      -0.00003580       0.00035721      -1.34807533
H        6.68543336       6.12931157       3.24968425       0.18378719       0.46195304      -0.17144230       0.00031304       0.00036540       0.00019096      -0.00007561      -0.00009419       0.00031008      -1.03400324
H        3.59725243       2.80447309       6.21478133      -0.02240496       0.12646403      -0.04733701       0.00001374       0.00007762       0.00011607      -0.00005295       0.00001092      -0.00000021      -0.53128701
H        5.24673410       4.64810065       3.76993720       0.64644294       1.75835394      -1.03638442       0.00045520       0.00110884       0.00040460      -0.00060930      -0.00032264       0.00060785      -0.49525679
H        7.02670801       7.22725133       4.93560788      -0.05234588      -0.15468858      -0.19104670       0.00003030       0.00009478       0.00027409       0.00005848      -0.00000888       0.00004291      -0.05070492
H        2.81555812       3.78040989       4.21040773       1.52501443      -0.85572454       0.26004229       0.00082970       0.00012779       0.00013465      -0.00012264       0.00010883      -0.00033653      -1.04887841
H        6.90707993       2.81762019       6.40534555      -0.00899526       0.03525311       0.00373232       0.00000391       0.00004626       0.00000171       0.00000508      -0.00000021      -0.00001164      -0.00318544
H        3.82590596       2.60677252       5.13571887      -0.01901189       1.81224920      -2.08893539       0.00011740       0.00080180       0.00086062      -0.00085819       0.00003008      -0.00005245      -0.96249181
