20
Lattice="10.0 0.0 0.0 0.0 10.0 0.0 0.0 0.0 10.0" Properties=species:S:1:pos:R:3:forces:R:3:stresses:R:6:energies:R:1 energy=-65.08788489590219 stress="-0.0008428226554907242 -0.0018708637830617966 0.0004738046426111112 -0.0018708637830617966 -0.0014659659206860012 0.0009486234486199057 0.0004738046426111112 0.0009486234486199057 -0.0030289232613738707" free_energy=-65.08788489590219 pbc="F F F"
H        4.92762731       5.95827750       5.48413232      -0.90444956       0.51509364       1.02465516       0.00107438      -0.00022786      -0.00075845      -0.00163150       0.00062185       0.00022418      -4.64840337
H        4.71584904       4.59596309       4.17982687       1.75928156       0.39827924      -2.24362342      -0.00243563      -0.00017242      -0.00027607       0.00060106      -0.00101244      -0.00152693      -2.96416651
H        4.62896495       5.39272174       6.43395288      -2.00730836       0.72122273       1.74348849      -0.00110161      -0.00136314      -0.00025040      -0.00153758       0.00077556       0.00006464      -3.55401455
H        3.63336473       5.79238611       6.68799426       0.16177961       0.36915978      -0.22388921       0.00030949       0.00032086       0.00039719       0.00029809      -0.00031196       0.00033170      -1.76405095
H        5.56662618       5.97286391       6.37333236      -0.29944165      -0.10334846      -0.29071375       0.00086850       0.00090912       0.00030558       0.00070666      -0.00032445      -0.00061227      -2.71098455
H        5.43910063       4.96378697       5.86149545      -0.58472495       1.32533714       1.90488852      -0.00153485      -0.00032218      -0.00161849      -0.00007321       0.00146983      -0.00004139      -4.65223189
H        4.48777849       6.47385359       6.35940822       0.35822806      -0.07663067      -0.34279851       0.00161496      -0.00011591       0.00035722       0.00040398       0.00014973      -0.00002989      -2.63100195
H        5.29672326       5.22408023       4.81063503      -1.81018035       0.16434333      -2.99028019      -0.00270423      -0.00354755      -0.00338710      -0.00211609      -0.00127738      -0.00016308      -4.67482284
H        4.26962356       5.60291048       4.59009251       1.82165702      -1.74648001       0.29321533       0.00053299       0.00200533       0.00108684       0.00178120      -0.00007904       0.00035877      -4.30762572
H        3.82007594       5.94109418       5.60850327       3.28357849      -1.60379666      -1.58880003       0.00148576       0.00085808       0.00188934       0.00024279       0.00073176      -0.00094712      -3.70033893
H        6.27218912       5.39909510       4.33556828       0.22462668       0.16280562      -0.27595833       0.00024825       0.00013675       0.00027044       0.00008026      -0.00006515       0.00010458      -1.76417933
H        3.26029143       5.82257682       4.22386867      -0.58827045      -0.07785563       0.62602426      -0.00026937       0.00036101       0.00085067       0.00009222       0.00022838      -0.00011481      -1.80786722
H        4.40633529       4.98448477       5.46560994      -0.37735024      -1.02997637      -1.09060749      -0.00030833      -0.00163655      -0.00154274       0.00011980      -0.00128300      -0.00035426      -5.11651014
H        6.13960902       4.59800381       5.09928557       1.23996527      -0.42939568       0.05459383       0.00004556       0.00046644      -0.00039664       0.00057391       0.00021620       0.00052607      -3.19242794
H        3.38416553       5.08408261       5.05332844      -0.03504827       0.45175014      -0.28130556       0.00058553      -0.00048223       0.00047563       0.00014574      -0.00022620       0.00026298      -3.30913916
H        5.08515428       4.18776659       5.13915664       0.94587059      -1.02711710       0.64617592       0.00089261       0.00015453      -0.00010011       0.00008407       0.00028343       0.00025891      -3.82941210
H        6.06680598       5.72187856       5.38946582       0.44579575       1.26085946       1.08744349       0.00076636       0.00051264      -0.00022138       0.00026096      -0.00062005      -0.00100706      -3.18761373
H        3.67306264       4.79765525       4.00220018      -2.76454923       3.11965427       0.52044923      -0.00126682       0.00039410       0.00066340       0.00094361       0.00020096       0.00085445      -2.65102202
H        5.83382850       3.93900342       5.95011785      -0.54335520      -0.14574465      -0.60364806       0.00048570       0.00020255       0.00042361      -0.00023506       0.00030731      -0.00017433      -1.74434953
H        3.98458571       4.17749298       4.85953631      -0.32610477      -2.24816013       2.03069033      -0.00013208       0.00008043      -0.00119746       0.00020773       0.00068845       0.00011399      -2.87772246
