20
Lattice="10.0 0.0 0.0 0.0 10.0 0.0 0.0 0.0 10.0" Properties=species:S:1:pos:R:3:forces:R:3:stresses:R:6:energies:R:1 energy=-11.49135176701474 stress="-0.004275778263224209 0.008386721348508994 0.0038236078712368996 0.008386721348508994 0.009925845188823721 -0.006244968068043643 0.0038236078712368996 -0.006244968068043643 0.002877146302985926" free_energy=-11.49135176701474 pbc="F F F"
H        5.97648936       6.81296601       7.11355900      -0.25264407      -0.81052250      -0.44966838       0.00028833       0.00056918       0.00021933       0.00024627       0.00011370       0.00011443      -0.17017578
H        3.84002164       3.26361353       4.14557196      -0.82990960      -0.62243112       2.01975248       0.00056409       0.00080188       0.00113296      -0.00074959      -0.00010400      -0.00014205      -0.93702584
H        3.66515439       5.91407857       6.84169878      -8.83928255       4.07049167       5.94945564      -0.00464848      -0.00024494      -0.00124248      -0.00156740       0.00220375       0.00297509      -1.56747904
H        3.17323773       4.68492750       7.06798955       0.88351615       3.12415231      -0.81239414       0.00069468       0.00211757       0.00017208      -0.00036746      -0.00024639       0.00034587      -0.55642239
H        7.13023648       5.18811456       7.35385916      -0.30121383       0.15188697      -0.15975006       0.00022365       0.00015592       0.00007558      -0.00002323       0.00011771      -0.00010953      -0.06609066
H        5.53761251       5.49613938       6.28647189       3.38197326       0.80501409       0.22605380      -0.00131180       0.00044858       0.00025703       0.00025275       0.00027861      -0.00002487      -0.64912154
H        3.69907091       7.03716962       6.79469937      -0.66886961      -1.29414597       0.00979033       0.00066958       0.00077440       0.00002398       0.00002120      -0.00007195       0.00030522      -0.73533059
H        5.70531161       5.66757060       3.12377975       1.42139584      -0.84126060       1.22874907       0.00158511       0.00099357       0.00031390      -0.00042035      -0.00007734       0.00089598      -0.71146939
H        2.60629861       4.90326747       4.06912774       0.17457957      -0.29875118       0.01215983       0.00010602       0.00025873       0.00001219      -0.00003737       0.00000168      -0.00010442      -0.53070993
H        2.57871509       6.05819239       6.89021218      -0.34179498      -0.04485656       0.09967883      -0.00022224       0.00108817       0.00002308      -0.00012297       0.00000486       0.00022280      -0.82703872
H        7.42606878       7.11726546       2.64220787      -0.75777277      -1.39031193       0.86845149       0.00024326       0.00076992       0.00032380      -0.00044533      -0.00024870       0.00041840      -0.25266218
H        2.89950000       7.21901664       3.08497486      -0.00411804      -0.03252492       0.01382252       0.00000060       0.00003766       0.00000680      -0.00001600      -0.00000203       0.00000477      -0.00479979
H        4.46075309       5.43938496       6.39134562       6.19153706      -6.13734519      -5.00960914      -0.00515747      -0.00099718      -0.00115641      -0.00135703       0.00223698       0.00240990      -0.92973478
H        6.86110387       6.02475211       3.29326036      -1.57610015       0.67830835      -1.03345123       0.00153504       0.00093412       0.00036509      -0.00033745      -0.00004254       0.00082615      -0.68080912
H        3.60344998       2.71263356       6.29691542       0.04519346       0.09688582      -0.46346908       0.00001803       0.00013500       0.00035146       0.00002729      -0.00004096      -0.00002351      -0.53264145
H        5.13055663       4.61615002       3.72624077       0.67981684       1.44711479      -0.81457513       0.00049581       0.00100275       0.00033887      -0.00051892      -0.00032750       0.00062425      -0.34437127
H        7.06565190       7.31659760       5.02078591      -0.04554334      -0.10169046      -0.08859653       0.00002969       0.00006507       0.00019250       0.00004647      -0.00002530       0.00002938      -0.03448646
H        2.83629008       3.80599154       4.17447149       0.95090814      -0.43045762       0.14041949       0.00052211       0.00035679       0.00011728      -0.00012251       0.00006908      -0.00031961      -1.04431102
H        6.90889329       2.79034715       6.39800831       0.00260019       0.02816735       0.01122869       0.00000029       0.00003377       0.00000537       0.00001346       0.00000124       0.00000312      -0.00385276
H        3.78734564       2.56179905       5.19233090      -0.11427156       1.60227670      -1.74804848       0.00008792       0.00062490       0.00134474      -0.00076678      -0.00001732      -0.00006464      -0.91281905
