20
Lattice="10.0 0.0 0.0 0.0 10.0 0.0 0.0 0.0 10.0" Properties=species:S:1:pos:R:3:forces:R:3:stresses:R:6:energies:R:1 energy=-67.64493920799296 stress="0.004809382987507486 -0.003158960897335326 -8.778405584182185e-06 -0.003158960897335326 0.004185606890838151 -0.0013228691797836695 -8.778405584182185e-06 -0.0013228691797836695 0.0003832355754348183" free_energy=-67.64493920799296 pbc="F F F"
H        5.01718002       5.94585343       5.43421275       0.19102849      -0.02848404       0.77166556      -0.00153470       0.00070014       0.00029528      -0.00068755      -0.00011698       0.00060217      -4.68704370
H        4.65880583       4.69837097       4.12616246      -4.52441292       1.66654292      -0.52890489       0.00094483       0.00112997      -0.00002408       0.00034144      -0.00106401      -0.00052535      -3.19921428
H        4.44953465       5.26244308       6.20815630      -1.55586109       0.71975188       0.11554062       0.00083608      -0.00013609      -0.00015356      -0.00119779       0.00092987       0.00098627      -4.12735281
H        3.46984925       5.72887568       6.41538368       0.63778614       0.58283469      -0.42354685       0.00083253       0.00044009       0.00059670       0.00037804       0.00006918       0.00052685      -2.24625885
H        5.43773184       5.77150150       6.43142975      -0.19916317       0.02037099      -0.11065796       0.00135827       0.00011711       0.00037604       0.00028160      -0.00038729      -0.00001725      -2.76707454
H        5.37236332       4.90880002       5.74663658      -0.26083981       0.34863496       0.67094240      -0.00206183      -0.00146388      -0.00079301      -0.00100002       0.00053388      -0.00029764      -4.76514199
H        4.46457072       6.35099947       6.34744436       0.31495716      -0.45067218      -0.21218903       0.00142154       0.00010770       0.00046927       0.00031061      -0.00057909      -0.00001256      -2.69797142
H        5.40296413       5.27704153       4.67546891       0.87751141      -0.28067425      -0.23678136      -0.00077712      -0.00000040      -0.00020453      -0.00106343       0.00052543      -0.00037522      -4.70699646
H        4.39538705       5.82045602       4.44343236       1.31613504      -0.49023479       0.05559945       0.00290659       0.00084278       0.00080275       0.00102871       0.00031032      -0.00061804      -3.47534111
H        3.94606958       5.97118032       5.45272002      -0.22654044      -0.86857238      -0.26917729      -0.00327583       0.00035334      -0.00091380       0.00024684      -0.00031552      -0.00090239      -4.33170561
H        6.46549614       5.49207964       4.45292576       0.03182462      -0.20240400      -0.18175890       0.00035959       0.00021347       0.00007827      -0.00012764      -0.00019805       0.00010837      -1.72969650
H        3.07966315       5.92021830       4.80917074      -0.61439638      -0.27573794       0.75195603       0.00052736       0.00009305       0.00042301      -0.00124865      -0.00036770      -0.00025410      -1.88080556
H        4.46127085       5.02440731       5.16232982      -0.72583944      -0.61690292      -0.08743682      -0.00218333      -0.00306790      -0.00432578       0.00030660       0.00035615      -0.00111949      -5.71334235
H        6.18435472       4.59994161       5.07172770       1.31701055       0.95760212       0.51258461      -0.00021213       0.00080389       0.00008830       0.00025617       0.00009963      -0.00017368      -3.19937096
H        3.44066686       4.99712287       5.55028122       1.00854778       0.22739159      -0.44144472       0.00128097       0.00154600       0.00178646       0.00026932       0.00070468      -0.00060040      -3.41995984
H        5.16822945       4.18339571       4.94891427      -2.11624587       0.20520485      -0.63752714       0.00039219       0.00095617      -0.00100337       0.00003585      -0.00078658      -0.00000369      -3.76943325
H        6.09674573       5.67802202       5.48496402      -0.50548847      -0.37691960       0.04504857       0.00057569       0.00060963       0.00070931       0.00071857       0.00017134      -0.00027879      -3.21985177
H        3.59133123       5.03670783       4.44041921       4.77871172      -2.23537585       0.66015825       0.00146687      -0.00016538       0.00096518       0.00014171       0.00073369       0.00047733      -3.34783234
H        5.76233714       3.87934869       5.83706560       0.34874731       0.28256025      -0.18741938       0.00035112       0.00049840       0.00021415      -0.00026911      -0.00008470       0.00001107      -1.75685179
H        4.02720991       4.08321176       4.86866545      -0.09347261       0.81508369      -0.26665117       0.00160069       0.00060750       0.00099664      -0.00004415      -0.00054304      -0.00069241      -2.60369408
