20
Lattice="10.0 0.0 0.0 0.0 10.0 0.0 0.0 0.0 10.0" Properties=species:S:1:pos:R:3:forces:R:3:stresses:R:6:energies:R:1 energy=-69.58519055595147 stress="0.003241993640090163 -0.0002586203538448763 -0.0009975647058954092 -0.0002586203538448763 0.0029114332475493557 -7.594218223123967e-05 -0.0009975647058954092 -7.594218223123967e-05 0.0015854500841888661" free_energy=-69.58519055595147 pbc="F F F"
H        4.88440889       5.97853900       5.48252014      -0.26429334      -0.15368359       0.07728262      -0.00069739       0.00067649      -0.00090519      -0.00079052      -0.00084854      -0.00022908      -4.74940754
H        4.62836505       4.89798704       4.04346493      -0.28932408      -0.21863443       0.81190627       0.00163610       0.00066778       0.00033838      -0.00000329      -0.00000028       0.00016542      -3.25133710
H        4.46933440       5.12470540       6.19067317       0.03630449       0.53323493      -0.09010944       0.00057001      -0.00000457      -0.00019048      -0.00127838       0.00040601       0.00036371      -4.24854047
H        3.39889703       5.36609007       6.38091796       0.30441284      -0.16086398      -0.36440886       0.00097696       0.00059254       0.00046773       0.00070239       0.00025416       0.00038585      -2.67654078
H        5.32909984       5.79498628       6.45761862      -0.05987158      -0.11508444       0.09152255       0.00147326       0.00024832       0.00029099       0.00040259      -0.00064017       0.00002477      -2.74633250
H        5.45340220       4.99043622       5.69676037       0.03071132       0.27265625       0.03900038      -0.00176043      -0.00021739       0.00048581      -0.00034089      -0.00014852      -0.00062942      -4.72026743
H        4.23831439       6.17613073       6.37471966       0.15106217      -0.23640017      -0.04545731       0.00163988       0.00000454       0.00046550       0.00022320      -0.00013075       0.00034624      -2.73568133
H        5.39958754       5.48300062       4.64160220      -0.09027374      -0.20672273       0.20004528      -0.00089310      -0.00007554       0.00109509       0.00000797       0.00077722      -0.00000316      -4.73722137
H        4.36572337       5.89120449       4.49153303       0.04754852      -0.34853661       0.05724284       0.00087294       0.00047363       0.00041674      -0.00005879       0.00015855       0.00019543      -3.39223585
H        3.81273617       5.74103648       5.44383245       0.33750901      -0.94058203      -0.40005358      -0.00126485       0.00069548      -0.00071029      -0.00018056       0.00096423      -0.00062681      -4.64966455
H        6.39388685       5.93596272       4.46953306       0.00133538      -0.03727140       0.11930778       0.00031696       0.00023351       0.00021141      -0.00012127      -0.00022150       0.00010489      -1.72303952
H        2.82892602       5.25321128       5.38694312       0.38080551      -0.02016234      -0.03958188       0.00057005      -0.00022393       0.00105066       0.00027005      -0.00017582      -0.00006879      -2.21400686
H        4.55113330       5.00841054       5.12406185      -0.22966729       0.30532779      -0.05057415      -0.00571622      -0.00477865      -0.00584650      -0.00074882      -0.00033351      -0.00065188      -5.61695047
H        6.30042195       4.94884557       4.99108717      -0.40782161      -0.01195267       0.11023399       0.00065949       0.00055779       0.00002021       0.00053877       0.00009182       0.00015753      -3.19262194
H        3.67983920       4.58547994       5.60626719       0.20160806       0.51723962       0.09814993      -0.00045633       0.00145397       0.00084122       0.00056281      -0.00008770       0.00006042      -3.71906705
H        5.34563363       4.37086060       4.74499912      -0.36476254       0.45113632      -0.20086344       0.00144620       0.00073498       0.00056416       0.00030182       0.00032762       0.00089547      -3.76404749
H        5.98905670       5.92152911       5.51113275      -0.13710288      -0.26677491      -0.17366533       0.00056269       0.00019368       0.00106235       0.00063322      -0.00006081      -0.00013499      -3.23849524
H        3.61272680       5.04589300       4.57870872       0.18504606       0.06306115       0.11649098       0.00098470       0.00092256       0.00103548       0.00026946      -0.00093014      -0.00006267      -3.70692164
H        6.00478683       4.03906430       5.57870922      -0.06470748       0.08842619      -0.05180241       0.00044211       0.00042530       0.00007870      -0.00016071       0.00006201      -0.00013660      -1.76455275
H        4.20548152       4.07660422       4.71242589       0.23148118       0.48558706      -0.30466621       0.00187896       0.00033093       0.00081350      -0.00030501      -0.00046145      -0.00041494      -2.73825868
