20
Lattice="10.0 0.0 0.0 0.0 10.0 0.0 0.0 0.0 10.0" Properties=species:S:1:pos:R:3:forces:R:3:stresses:R:6:energies:R:1 energy=-69.60295752571372 stress="0.00013561399578294555 0.00014283979847177464 8.340664071731318e-05 0.00014283979847177464 7.930001111558479e-05 3.088710849797941e-05 8.340664071731318e-05 3.088710849797941e-05 -6.420448338465074e-05" free_energy=-69.60295752571372 pbc="F F F"
H        4.85270851       5.98051747       5.50057415       0.03176229       0.00794624      -0.00488687      -0.00077099       0.00059559      -0.00095226      -0.00079281      -0.00077288      -0.00031022      -4.75582370
H        4.62842191       4.92405795       4.03920054       0.02566244       0.00482783      -0.01599101       0.00142731       0.00041220       0.00003780       0.00010971       0.00006614       0.00028116      -3.25898622
H        4.48363691       5.09818316       6.19022500      -0.02611062       0.08049226       0.02346064       0.00018665      -0.00014854      -0.00032422      -0.00127924       0.00053816       0.00040018      -4.25149907
H        3.40652493       5.27993482       6.38881608      -0.02656780      -0.01002942       0.00432589       0.00079348       0.00052469       0.00035062       0.00067524       0.00028741       0.00042935      -2.67960825
H        5.31230885       5.79774651       6.46976902       0.01412574      -0.01368988       0.01114215       0.00143905       0.00020993       0.00036214       0.00035216      -0.00066806       0.00005269      -2.74401946
H        5.46529908       5.01593337       5.69039573      -0.04984692      -0.06964730      -0.04646988      -0.00201750      -0.00039780       0.00048698      -0.00027027       0.00003510      -0.00069593      -4.70728976
H        4.20407171       6.13029788       6.39733603      -0.00889039       0.01863540       0.01536098       0.00157941      -0.00009783       0.00047082       0.00019273      -0.00006834       0.00047056      -2.73392449
H        5.38454827       5.52784795       4.64521511      -0.06843318       0.04146782      -0.00905111      -0.00088416      -0.00019906       0.00108704       0.00004635       0.00078263      -0.00001095      -4.73649160
H        4.33358151       5.89222824       4.50966161      -0.00279364       0.03169909      -0.01955903       0.00079353       0.00033778       0.00030910      -0.00006779       0.00021089       0.00025140      -3.39358640
H        3.79535877       5.69173046       5.45845535       0.01671032      -0.08259738       0.00379471      -0.00154227       0.00033274      -0.00093591      -0.00014747       0.00107566      -0.00066576      -4.64851261
H        6.36423513       6.01787289       4.48145718      -0.03761850      -0.05491238      -0.00793814       0.00033875       0.00024411       0.00013941      -0.00012230      -0.00019623       0.00013809      -1.72290234
H        2.83565219       5.16315042       5.39727636       0.01426937      -0.02042593      -0.00621697       0.00041539      -0.00027938       0.00100193       0.00022776      -0.00016924      -0.00003729      -2.21698554
H        4.56173250       5.00603481       5.12079075       0.02364965       0.07212293       0.04782887      -0.00609823      -0.00514789      -0.00617546      -0.00082637      -0.00011118      -0.00056406      -5.59485857
H        6.30363815       5.01694975       4.97944955      -0.02858566       0.02534352      -0.01257977       0.00048547       0.00052595      -0.00003655       0.00056913       0.00013694       0.00012906      -3.19267227
H        3.71809626       4.53400501       5.59904356       0.00413441       0.02147210       0.00917844      -0.00062696       0.00125331       0.00081917       0.00055108      -0.00003397      -0.00006154      -3.72285756
H        5.37337215       4.41555792       4.71382358       0.11810783      -0.01308969       0.03718654       0.00102595       0.00057163       0.00056652       0.00042031       0.00029229       0.00101801      -3.76616576
H        5.95918673       5.96950180       5.51968738      -0.02326656      -0.03978314      -0.02119207       0.00053676       0.00005778       0.00101034       0.00063277      -0.00008449      -0.00018849      -3.23469720
H        3.61858822       5.01326647       4.58116252       0.01729477       0.00620876       0.01171344       0.00082243       0.00079322       0.00093961       0.00013680      -0.00084153       0.00000554      -3.71894976
H        6.03630772       4.08236815       5.54159573       0.01183368      -0.02984631       0.00474812       0.00045007       0.00037711       0.00003706      -0.00014852       0.00004491      -0.00011034      -1.77047229
H        4.25449215       4.07279256       4.68357534      -0.00543723       0.02380548      -0.02485492       0.00178147       0.00011375       0.00074165      -0.00022839      -0.00044082      -0.00038861      -2.75265470
