20
Lattice="10.0 0.0 0.0 0.0 10.0 0.0 0.0 0.0 10.0" Properties=species:S:1:pos:R:3:forces:R:3:stresses:R:6:energies:R:1 energy=-13.39802349683135 stress="0.009027995091768694 0.001961054137590539 -0.0017284287961846518 0.001961054137590539 0.015772458288978122 -0.002806883454614988 -0.0017284287961846518 -0.002806883454614988 0.007317257813112496" free_energy=-13.39802349683135 pbc="F F F"
H        5.92039911       6.63400191       7.01344971      -0.32524383      -1.71616374      -0.91899011       0.00038773       0.00105745       0.00039306       0.00048958       0.00015198       0.00014957      -0.32362819
H        3.87451523       3.32801052       4.16878773      -1.12770257      -0.75624210       1.88872205       0.00072841       0.00090024       0.00101502      -0.00079199      -0.00012050      -0.00014729      -0.93792410
H        3.67252923       5.94791978       6.84475043      -0.33834542      -1.44271985       0.23925225       0.00059083       0.00193121       0.00008182      -0.00023127      -0.00019651       0.00029866      -1.89604904
H        3.18765488       4.82287986       7.08033120       1.12253836       3.71303049      -1.02099240       0.00099347       0.00224971       0.00016736      -0.00047054      -0.00023558       0.00032763      -0.72618733
H        7.07240972       5.21674730       7.32232602      -0.54515510       0.26542436      -0.32168560       0.00037006       0.00020664       0.00015085      -0.00005514       0.00021490      -0.00017447      -0.11370433
H        5.68888059       5.46727470       6.24968625      -0.81360206       1.13845160       1.51128185       0.00111448       0.00083937       0.00057918       0.00044912       0.00001154       0.00017323      -0.79026719
H        3.53454918       7.08408318       6.79199788      -0.96806559      -2.52512956       0.08371700       0.00072032       0.00141916       0.00000631      -0.00004229      -0.00002523       0.00045246      -0.77206501
H        5.75812745       5.68328790       3.14936086      -1.38834347      -1.85101557       0.89451433       0.00001807       0.00089528       0.00029498      -0.00051350      -0.00029497       0.00040857      -0.82174727
H        2.62428483       4.91185845       4.06578073       0.35718211      -1.33708156       0.11943838       0.00012690       0.00084962       0.00001830      -0.00009937       0.00001443      -0.00021044      -0.52332868
H        2.56132226       6.09646841       6.82434841       1.87669313      -0.05138387       0.20241263       0.00084949       0.00143617       0.00003462      -0.00017850       0.00004835       0.00017753      -0.94648470
H        7.33321968       6.97631067       2.72915831      -0.41596226      -0.55293017       0.36042432       0.00016722       0.00026312       0.00014509      -0.00012308      -0.00010462       0.00019769      -0.52705479
H        2.89876328       7.21329037       3.08740993      -0.00407288      -0.03415010       0.01451768       0.00000056       0.00003930       0.00000710      -0.00001671      -0.00000199       0.00000469      -0.00511770
H        4.59295622       5.33710346       6.58656601       0.04028039       0.51520425       0.09675212       0.00176429       0.00044373       0.00018437       0.00000702      -0.00044281       0.00014616      -1.18321224
H        6.78235922       6.11111731       3.21448651       0.86726465       0.73109334      -0.12003116      -0.00017942       0.00022893       0.00014691      -0.00008763      -0.00009804       0.00005424      -1.02113054
H        3.59706419       2.74007875       6.30478632       0.33092451      -0.20496084      -2.05674728       0.00004628       0.00014475       0.00126820       0.00018045      -0.00019884      -0.00004306      -0.49147763
H        5.20827720       4.63600681       3.73703853       0.72049798       1.57763626      -0.86740174       0.00048385       0.00105669       0.00034519      -0.00054439      -0.00032770       0.00063850      -0.36434556
H        7.05738250       7.29852809       5.00474552      -0.05395076      -0.11270518      -0.10764577       0.00003300       0.00006815       0.00021580       0.00004499      -0.00002314       0.00003592      -0.03948281
H        2.82181841       3.78383765       4.17924354       1.02060677       0.56581882       0.05547443       0.00068282       0.00093081       0.00012243      -0.00018631       0.00009141      -0.00044910      -1.03259067
H        6.90908803       2.79585408       6.39995494      -0.00333063       0.03942836       0.01002565       0.00000334       0.00004916       0.00000497       0.00001205       0.00000126      -0.00000469      -0.00412414
H        3.79616039       2.54531852       5.15330208      -0.35221333       2.03839507      -0.06303864       0.00012632       0.00076298       0.00213571      -0.00064939      -0.00019236      -0.00007474      -0.87810155
