20
Lattice="10.0 0.0 0.0 0.0 10.0 0.0 0.0 0.0 10.0" Properties=species:S:1:pos:R:3:forces:R:3:stresses:R:6:energies:R:1 energy=-24.310397973343175 stress="0.011123298462145888 0.01153488072425446 -0.006541020589109183 0.01153488072425446 -0.005238975272996514 -0.0026357141311455 -0.006541020589109183 -0.0026357141311455 0.0074880137905152236" free_energy=-24.310397973343175 pbc="F F F"
H        5.19322686       6.11634954       6.62467816      -3.41124861      -0.21210535      -0.20706583       0.00117569       0.00068799       0.00018207       0.00031976      -0.00044827       0.00000648      -2.20990579
H        4.19910183       3.78278749       4.14168557       6.86577788     -15.26469447       3.09569464       0.00042036      -0.00565493       0.00079139      -0.00012545      -0.00116732       0.00482013      -1.35102963
H        4.17534503       5.78199678       7.01941678       3.11324993      -2.65846291      -0.34455516       0.00025339      -0.00091712       0.00031325       0.00024624      -0.00064815       0.00040584      -2.54503921
H        3.29863506       5.21547541       7.44381319       0.56382523       0.57499366      -0.60133062       0.00035825       0.00038807       0.00026976      -0.00015191      -0.00023030       0.00016754      -1.10313824
H        6.15629649       5.81602456       7.08564688       0.71795299       0.32584877       0.94835925      -0.00004107      -0.00020346      -0.00029928      -0.00015058      -0.00022865       0.00001135      -1.06348775
H        5.70695164       5.16427897       6.31218645      -0.79606245      -0.33098898      -0.55828150       0.00022353       0.00000344      -0.00012169      -0.00015455      -0.00031782      -0.00030075      -1.56720274
H        4.00235028       6.86040402       6.93933095      -0.51941495      -0.66227669      -0.89701301       0.00144437       0.00017788       0.00016130       0.00038638      -0.00010906       0.00028015      -1.23862500
H        5.45303342       5.53057916       3.30259820      -0.95786081      -1.46375619       0.87796270       0.00020843       0.00067551       0.00035746      -0.00052629      -0.00035041       0.00035712      -1.05128787
H        3.72219903       4.67606022       4.06886424      -7.64612238      14.05930541      -0.61055701      -0.00001704      -0.00612701       0.00024706       0.00016750      -0.00064596       0.00436111      -0.96933807
H        3.15538493       6.06269877       6.71442412       0.61643228       1.35884142      -0.02797162       0.00034573       0.00066693       0.00008667       0.00020591      -0.00015635       0.00061886      -1.53396607
H        7.00416451       6.71617007       3.15359432      -0.97977575      -0.96609819       0.81112454       0.00040657       0.00037573       0.00026155      -0.00027284      -0.00026936       0.00038705      -1.01460051
H        2.89452069       7.09125843       3.13850072       0.00664948      -0.01940345       0.00747444       0.00000275       0.00002343       0.00000348      -0.00000903       0.00000309      -0.00000803      -0.00221602
H        4.61333612       5.28281660       6.09844546      -0.33615720       1.34752110       1.34848000       0.00076182       0.00076041       0.00087145       0.00058527      -0.00014918       0.00007101      -1.70838411
H        6.33200681       6.01740143       3.78117803      -0.03698445      -0.59907540      -1.34017527      -0.00010677      -0.00019541      -0.00001066      -0.00071591      -0.00066554      -0.00011467      -1.51175629
H        3.48786570       3.26376083       6.06297179       0.30400385      -0.05436214      -2.15380601       0.00011006       0.00025280       0.00140676       0.00010031      -0.00014378      -0.00000557      -0.56745689
H        5.07006172       4.66489302       3.98774530      -2.95333517      -0.19831977      -0.47254768       0.00240294       0.00152561       0.00053214      -0.00058992      -0.00046631       0.00118247      -1.21628602
H        6.91608798       6.80418835       4.26989312       0.99660942       1.37612992       0.83690798      -0.00024678      -0.00051602      -0.00015487      -0.00033567      -0.00024538      -0.00036436      -0.99983857
H        2.94358902       3.84989804       4.41983491       5.20781980      -0.33485631       0.17958451       0.00257144       0.00130031       0.00068928      -0.00072809      -0.00010285      -0.00010011      -1.27305933
H        6.87843154       2.90515547       6.40986089      -0.01577483       0.03042074      -0.00131526       0.00000924       0.00003436       0.00000006      -0.00000149       0.00000077      -0.00001782      -0.00456487
H        3.68917295       3.02778055       4.93284183      -0.73958427       3.69133884      -0.89096908       0.00084040       0.00150250       0.00190084      -0.00088535      -0.00020018      -0.00022293      -1.37921500
