20
Lattice="10.0 0.0 0.0 0.0 10.0 0.0 0.0 0.0 10.0" Properties=species:S:1:pos:R:3:forces:R:3:stresses:R:6:energies:R:1 energy=56.86796295582097 stress="-0.3777306967273372 0.206904491864119 0.017566502645888278 0.206904491864119 -0.40961065657261386 0.139260759137737 0.017566502645888278 0.139260759137737 -0.21767680999706912" free_energy=56.86796295582097 pbc="F F F"
H        5.89545905       6.66442013       7.01691720       1.32927970       2.43246920       1.57025830      -0.00002823      -0.00092747      -0.00035232      -0.00068622      -0.00030754      -0.00057787      -0.54916411
H        3.86654712       3.23489764       4.11836958      -0.62463063      -0.77255619       1.50553907       0.00036112       0.00057096       0.00073094      -0.00054317      -0.00007007      -0.00009744      -0.99589338
H        3.64899595       5.68298803       6.60105769     375.14198599    -158.75562067    -199.68478595      -0.12677365      -0.02175349      -0.03635144      -0.02907822       0.06807674       0.05471448      11.20919296
H        2.83773551       5.11888196       7.18188688     -21.35983230    -150.62573812      37.23477969      -0.00093407      -0.06448316      -0.00386676       0.01605155       0.00209633      -0.00928287       3.33296106
H        7.15754840       5.17419425       7.36834806      -0.29080775       0.17242562      -0.12917792       0.00022601       0.00015895       0.00004908      -0.00003638       0.00009749      -0.00013587      -0.06239980
H        5.45942552       5.82154397       6.49847731      43.74837031      27.45631997      12.76966446      -0.01716876      -0.00878424      -0.00211732      -0.00438655      -0.00585885      -0.01223037       0.33848728
H        3.56047415       6.89611160       6.86419535       1.11126530      -1.48002579      -0.66721499      -0.00000732       0.00115147       0.00008270       0.00038405      -0.00003085      -0.00051622      -0.96211379
H        5.18966593       5.41377216       3.19149561    -245.28286464     389.42747753    -304.44330540      -0.04441594      -0.11233717      -0.06872991       0.08789112      -0.05542795       0.07097171      15.44905175
H        2.56715930       5.05773306       4.05509614       0.38153270      -1.61873584       0.14076960       0.00009801       0.00121780       0.00004111      -0.00012528       0.00001792      -0.00023921      -0.24623910
H        2.96433414       5.97579654       6.96732877    -352.59188721     310.15643613     162.43465701      -0.12961960      -0.08883211      -0.04072283      -0.01299633       0.07093038       0.04480187      15.98917356
H        7.43275634       7.12709894       2.63188298      -0.71050568      -1.59074808       1.03272356       0.00017602       0.00085825       0.00038345      -0.00052521      -0.00024177       0.00038018      -0.28470501
H        2.89950152       7.22323757       3.08328496       0.00309654      -0.05540404       0.02168434       0.00001305       0.00005853       0.00001033      -0.00002339      -0.00000296      -0.00000151      -0.00823303
H        4.69185364       5.31173720       6.25647299     -47.04929174     -29.41640190     -13.63549688      -0.01632630      -0.00737074      -0.00153239      -0.00346065      -0.00582645      -0.01186237       0.31118814
H        6.96474298       6.05463575       3.29698740       0.25335028       1.39314506      -0.86210101       0.00052102       0.00102275       0.00041291      -0.00049524      -0.00024590       0.00057282      -0.37383024
H        3.57540626       2.72550493       6.47731209       0.21386948      -0.11062966      -1.33513993       0.00003776       0.00009729       0.00099749       0.00011750      -0.00015687      -0.00002673      -0.19220990
H        5.55375010       4.83638172       3.64302068     245.65462764    -389.20745317     304.44856300      -0.04451963      -0.11226780      -0.06870454       0.08786457      -0.05547628       0.07102498      15.44506096
H        7.06928122       7.32618994       5.02965280      -0.03943897      -0.09799579      -0.07782567       0.00002915       0.00005763       0.00018551       0.00003595      -0.00004053       0.00002300      -0.03474342
H        2.82636507       3.68215808       4.18441638       0.50145646       1.06998770       0.05147558       0.00045044       0.00132810       0.00013197      -0.00023147       0.00011616      -0.00047751      -0.78473256
H        6.90888967       2.78713827       6.39696567       0.00293581       0.02818298       0.01146871       0.00000037       0.00003364       0.00000557       0.00001369       0.00000143       0.00000350      -0.00387773
H        3.82186974       2.51555599       5.04434235      -0.39251129       1.59486506      -0.38653558       0.00014986       0.00059015       0.00166965      -0.00050954      -0.00008391      -0.00014009      -0.70901068
