20
Lattice="10.0 0.0 0.0 0.0 10.0 0.0 0.0 0.0 10.0" Properties=species:S:1:pos:R:3:forces:R:3:stresses:R:6:energies:R:1 energy=-57.01356781217246 stress="-0.004019444726174676 -0.010361654321843916 -0.0039213037917306135 -0.010361654321843916 0.0013913127290128733 -0.006222943896789201 -0.0039213037917306135 -0.006222943896789201 -0.003207810877872492" free_energy=-57.01356781217246 pbc="F F F"
H        4.80900052       6.06873108       5.62661011       1.06205105       0.56666779       2.64608208       0.00023187      -0.00001464      -0.00120583      -0.00176544       0.00037644      -0.00027623      -4.14205683
H        4.77778860       4.08452000       4.08217289      -4.93278254      -0.99190821      -2.49032497       0.00111467       0.00027106      -0.00086621      -0.00031118      -0.00147682      -0.00037236      -2.17700083
H        4.53752598       5.27340888       6.46803324      -1.30620266       3.33918285       0.96501914       0.00089909       0.00123918      -0.00038369      -0.00125160       0.00003633      -0.00042281      -3.49156589
H        3.50908292       5.68438733       6.67739916       0.04565396      -1.43206657       0.11058732       0.00042478      -0.00007041       0.00013419       0.00041824      -0.00034617      -0.00046092      -1.75623819
H        5.42944226       5.93356710       6.53223509      -0.61467534       1.87854611       0.05292281       0.00117618      -0.00027163       0.00055984      -0.00008341      -0.00036977      -0.00036812      -2.73014498
H        5.44367811       5.08172323       5.84466771       3.73574148      -2.03223784       1.20600170      -0.00094734       0.00058637      -0.00081425      -0.00091871      -0.00052776      -0.00163852      -4.57018955
H        4.35199262       6.38824156       6.57182918       1.28557143      -1.68998535      -1.15232180       0.00094465       0.00088677       0.00054667       0.00074376       0.00069925      -0.00053980      -2.47067876
H        5.27243081       5.52502505       4.82393605      -3.16273606      -1.97139477      -7.76113821       0.00014183      -0.00249221      -0.00147081      -0.00106231      -0.00009857       0.00013626      -4.16283716
H        4.27696272       5.04359947       4.36661773       1.61325948      -2.21229548       0.48964921       0.00274977       0.00243611      -0.00008545      -0.00035444       0.00064452       0.00034113      -3.48334214
H        3.72318691       5.82909134       5.60446243       0.47845379       0.30762696       0.77549517       0.00061821       0.00082348       0.00167456       0.00073141       0.00133598       0.00065924      -2.94575426
H        6.30339847       5.82575887       4.46647257      -0.98891429       1.03603241      -0.56021875       0.00080219      -0.00045074       0.00001992       0.00024161      -0.00034120       0.00028312      -1.69552947
H        3.16779413       6.39286388       3.59102988       0.26104293      -0.36811169       0.33898527       0.00014940       0.00027482       0.00024340      -0.00019318       0.00014574      -0.00016270      -0.08791990
H        4.46165473       5.06392486       5.42307470      -0.69091205      -3.25672832      -1.06710055      -0.00435559      -0.00334571      -0.00498024      -0.00089964      -0.00155282       0.00012494      -4.71876725
H        6.18376580       4.89188466       5.02343229      10.29609529       4.97129170       4.80709758      -0.00464057      -0.00005952       0.00099866       0.00032171      -0.00054918      -0.00321783      -2.79182516
H        3.45294180       4.80589992       5.10674705      -1.77020246       2.14603284      -0.97439914      -0.00060595       0.00079872       0.00133598       0.00089163      -0.00039767       0.00057967      -2.73471125
H        5.25454180       4.45797327       4.95691990      -9.13281306      -7.24499115       3.11968077      -0.00527757      -0.00317170      -0.00150604      -0.00151517      -0.00035977      -0.00386753      -3.53035428
H        5.93690169       6.00253190       5.50563394       2.38032221       0.94921310       3.77131417       0.00002289       0.00059497      -0.00055451      -0.00011009      -0.00153776      -0.00106855      -3.07035175
H        3.60042721       4.12269135       4.18941651       2.76460120       2.38767537       0.98219326       0.00172252       0.00107965       0.00055294       0.00073007      -0.00003057       0.00050209      -2.07279054
H        6.15990126       4.10856614       5.95277986      -3.07502052       4.52685167      -3.50733996       0.00146983       0.00215966       0.00167589      -0.00113914       0.00075819      -0.00114612      -1.27297090
H        4.23934326       4.04558785       5.09404059       1.75146616      -0.90940142      -1.75218510      -0.00066032       0.00011708       0.00091717      -0.00069706      -0.00032967       0.00055339      -3.10853871
