20
Lattice="10.0 0.0 0.0 0.0 10.0 0.0 0.0 0.0 10.0" Properties=species:S:1:pos:R:3:forces:R:3:stresses:R:6:energies:R:1 energy=-18.45985804003967 stress="0.006662527175067171 -0.002027255955331312 -0.0017882920221625415 -0.002027255955331312 0.0009503399167991982 -0.0008557149141290582 -0.0017882920221625415 -0.0008557149141290582 0.004514061330731894" free_energy=-18.45985804003967 pbc="F F F"
H        5.54935332       6.13137695       7.06513436      -0.41976361      -3.29016970      -2.18931465       0.00185455       0.00122553       0.00076613       0.00081957       0.00025976       0.00007304      -1.50280365
H        3.91928692       3.43712112       4.20835288      -1.46317148      -0.74698959       1.78976930       0.00099113       0.00100434       0.00092772      -0.00080043      -0.00013203      -0.00016657      -1.01160503
H        3.91476506       5.92242188       6.87631362       2.48307074      -2.48693033      -0.60161896       0.00094208      -0.00158966       0.00003189       0.00023117       0.00007369       0.00006365      -2.05604903
H        3.17466731       5.15936631       7.18349333      -0.34276781      -0.12978724      -0.05984048       0.00011741       0.00017303       0.00005227      -0.00000145      -0.00000644      -0.00022533      -1.10544842
H        6.55710737       5.57577951       7.14012665      -0.13217740       1.02062566       1.65557401       0.00044570       0.00016855      -0.00076314      -0.00020341      -0.00044979      -0.00042316      -1.01677792
H        5.93524929       5.37681189       6.26476522      -2.88809161       0.64769302      -0.51588514       0.00034278       0.00042935      -0.00027714       0.00023894      -0.00095599      -0.00034306      -1.47662429
H        3.51017877       6.92785327       6.85428922       0.54455831       4.33872847       0.31654156      -0.00064224      -0.00185558      -0.00001052      -0.00014213      -0.00014971      -0.00011673      -1.03441931
H        5.67399001       5.61919321       3.19898532      -1.86152726      -2.30413196       0.95900150      -0.00035991       0.00073353       0.00031899      -0.00052941      -0.00026206       0.00011129      -0.96215904
H        2.74690401       4.87463557       4.06485624       0.12609225       1.38306374      -0.20881604       0.00015329      -0.00063535       0.00001101       0.00009191       0.00000406      -0.00008764      -0.54556886
H        2.80243421       6.11153729       6.70640746      -0.52228430      -2.30766173      -0.09053439       0.00005599      -0.00060099       0.00003488      -0.00020127      -0.00002581      -0.00082455      -1.48719139
H        7.30269533       6.91382923       2.82720833       0.43906695       0.59519900      -0.22147246      -0.00010071      -0.00020319       0.00005189       0.00014600       0.00008485      -0.00015529      -0.53315488
H        2.89527850       7.18692993       3.09869839      -0.00223935      -0.03489850       0.01458182       0.00000017       0.00004035       0.00000704      -0.00001686      -0.00000108       0.00000259      -0.00521855
H        4.82273495       5.33000381       6.51923020       1.30792668       2.15466270       1.37093908       0.00203348       0.00087517       0.00046473       0.00052285       0.00007330       0.00033088      -1.55531808
H        6.64591645       6.13507321       3.26345119       0.62715359       0.00578154       0.64063414      -0.00071219      -0.00029781       0.00005545       0.00018055       0.00008656      -0.00044758      -1.03555749
H        3.59102652       2.83409960       6.21074696       0.20156519      -0.05926852      -1.03217160       0.00004221       0.00009523       0.00065596       0.00004770      -0.00010992      -0.00002159      -0.52720382
H        5.26904784       4.65722269       3.77885032       0.54852178       1.63327093      -0.95754090       0.00043143       0.00103858       0.00038092      -0.00056360      -0.00029084       0.00056079      -0.52628516
H        7.01502752       7.19542836       4.89916578      -0.05813531      -0.17681721      -0.24984317       0.00003277       0.00010391       0.00031362       0.00007678      -0.00000177       0.00004747      -0.05946794
H        2.81897734       3.78893167       4.22428061       1.69491347      -2.28384268       0.45683759       0.00087534      -0.00062763       0.00012169      -0.00000950       0.00009494      -0.00030301      -1.04289279
H        6.90555226       2.82568380       6.40666177      -0.00926646       0.03395834       0.00274879       0.00000393       0.00004475       0.00000148       0.00000389      -0.00000014      -0.00001200      -0.00289866
H        3.84156860       2.62667840       5.11649305      -0.27344437       2.00751406      -1.07959002       0.00015531       0.00082826       0.00136918      -0.00074701      -0.00007987      -0.00009046      -0.97321373
