20
Lattice="10.0 0.0 0.0 0.0 10.0 0.0 0.0 0.0 10.0" Properties=species:S:1:pos:R:3:forces:R:3:stresses:R:6:energies:R:1 energy=139022.6530117626 stress="-336.6470881728089 525.5460511814263 -407.8337458471535 525.5460511814263 -831.0025491665294 646.4545585946981 -407.8337458471535 646.4545585946981 -505.9876871164506" free_energy=139022.6530117626 pbc="F F F"
H        5.89542810       6.66439412       7.01688171      -0.38602847      -0.83000338      -0.42989252       0.00036342       0.00046106       0.00017023       0.00016531       0.00013846       0.00015476      -0.58249182
H        3.62799563       3.21910214       4.28132181   12037.78925723   -6607.49821755    1028.50476490      -3.39181948      -1.24232963      -0.17640836       0.35750723      -0.45014929       1.99010930     383.31543095
H        3.46177802       5.52504635       6.72357707    2481.90468773   -2649.31490192   -1339.83647310      -0.50574188      -0.99628110      -0.17127901      -0.16480194       0.28724470       0.42015189     127.31232220
H        2.89712166       5.16326181       7.13760581    -672.29164957    -445.51145069     494.71224275      -0.18901253      -0.08553559      -0.10202831       0.09081919       0.13882923      -0.12270840      26.25912105
H        7.15762024       5.17415192       7.36837968      -0.27693213       0.16264814      -0.12124911       0.00021799       0.00015491       0.00004623      -0.00003255       0.00009265      -0.00012888      -0.05982535
H        5.40910215       5.78811939       6.48258790     381.60401258     254.21212435     120.92820817      -0.12654504      -0.05591686      -0.01254659      -0.02657972      -0.04007841      -0.08444075      12.63788180
H        3.54160226       6.86299623       6.86518395     143.68593975     244.20144608      -7.93750768      -0.03073712      -0.08961328      -0.00005005       0.00300052       0.00161545      -0.05313773       7.30587312
H        5.27857711       5.27266022       3.30182276 -1764771.16334428 2798611.41717407 -2188547.81725480    -164.26947161    -413.11005690    -252.63455409     323.05709846    -203.71603808     260.50253119   68981.60751661
H        2.56706298       5.05809519       4.05506278       0.34544035      -0.78255473       0.07918724       0.00013902       0.00070716       0.00004132      -0.00009436       0.00002239      -0.00023396      -0.13569623
H        3.11032097       6.12263787       6.88834147   -1950.66955501    2850.10666330     852.18524088      -0.34940036      -1.01972389      -0.07057200      -0.24864715       0.15127305       0.48603632     108.88277736
H        7.43293702       7.12750350       2.63162032      -0.70681677      -1.58611825       1.03021674       0.00017332       0.00085684       0.00038299      -0.00052454      -0.00024133       0.00037862      -0.28347593
H        2.89950073       7.22325170       3.08327943      -0.00725809      -0.04727169       0.02121687       0.00000121       0.00005118       0.00001031      -0.00002297      -0.00000353       0.00000786      -0.00776451
H        4.74284284       5.34508199       6.27215403    -383.53255869    -253.08867312    -119.60439344      -0.12550936      -0.05590833      -0.01241103      -0.02651083      -0.04062442      -0.08470965      12.83124365
H        6.96467887       6.05428158       3.29720660       0.18709962       1.35054376      -0.85414699       0.00056825       0.00103100       0.00040760      -0.00049035      -0.00025363       0.00060745      -0.38217059
H        3.57536793       2.72550868       6.47757727       0.08688882       0.06843558      -0.76768222       0.00001979       0.00008471       0.00066839      -0.00000940      -0.00007318      -0.00000784      -0.11768748
H        5.46474259       4.97743513       3.53269234 1764771.59950091 -2798611.15610790 2188547.81827120    -164.26952181    -413.11002027    -252.63453233     323.05708524    -203.71606643     260.50254782   68981.60616403
H        7.06929105       7.32621468       5.02967292      -0.03804782      -0.09656440      -0.07957260       0.00002839       0.00005680       0.00018400       0.00003709      -0.00003939       0.00002219      -0.03422353
H        3.07337827       3.53931931       4.21421181  -12181.83307309    7033.22909405   -1473.11717317      -3.37786571      -1.12500146      -0.04906587       0.23547748      -0.40837532       1.94987120     365.04881724
H        6.90888892       2.78713109       6.39696275       0.00293678       0.02818365       0.01146956       0.00000037       0.00003364       0.00000557       0.00001369       0.00000143       0.00000351      -0.00387792
H        3.81352426       2.67378483       4.85136849     143.69950014    -424.86444934     445.27452732      -0.01297502      -0.11559917      -0.12615612       0.12106821      -0.04102020       0.03899628      17.45307711
