20
Lattice="10.0 0.0 0.0 0.0 10.0 0.0 0.0 0.0 10.0" Properties=species:S:1:pos:R:3:forces:R:3:stresses:R:6:energies:R:1 energy=-22.652181633146096 stress="0.007100812436904335 -0.0007952438967644107 -0.0010452749592874816 -0.0007952438967644107 0.004787999661842358 -0.0008155936096734499 -0.0010452749592874816 -0.0008155936096734499 0.00317915800147846" free_energy=-22.652181633146096 pbc="F F F"
H        5.23137579       6.00858575       6.80662070      -0.59071989       0.48384598      -0.04032358       0.00009507       0.00009485      -0.00000933       0.00000438      -0.00000698      -0.00010558      -2.09887968
H        4.01887018       3.58339815       4.18982072      -2.66836303       0.70999384       1.32319944       0.00184849       0.00127614       0.00068006      -0.00055986      -0.00032834      -0.00025796      -1.19369171
H        4.13769779       5.88253927       6.97744457       1.38154208      -1.32965891      -0.39889110      -0.00045011      -0.00033881       0.00019179       0.00024354      -0.00021976      -0.00004965      -2.53273405
H        3.31759733       5.23056678       7.36832134       0.33683490       0.03166575      -0.17732052       0.00024547       0.00019761       0.00013507       0.00001428      -0.00019799       0.00007768      -1.12088215
H        6.28489431       5.77358238       7.09661573      -0.02466946      -0.07497595      -0.00826162       0.00014562       0.00000397       0.00002762       0.00002364       0.00004828       0.00005277      -1.04736249
H        5.76898447       5.16296023       6.30980408      -0.57381555      -0.06594387      -0.14359321       0.00044634       0.00001387       0.00006875      -0.00002763      -0.00004058      -0.00009365      -1.54483105
H        3.82161389       6.94654366       6.96192337       0.03444377      -0.22022189      -0.12016390       0.00044090       0.00021773       0.00005428       0.00005180      -0.00006428      -0.00001246      -1.14727647
H        5.56186439       5.56679123       3.26458313      -0.03280600       0.14884100      -0.14541126       0.00006543       0.00001198      -0.00001960       0.00003943      -0.00001305       0.00005168      -1.03831883
H        3.18721898       4.82394584       4.05519417       0.88469350      -0.86299468       0.11285365       0.00045704       0.00064960       0.00008187      -0.00009598       0.00005592      -0.00044207      -0.70178393
H        3.08242377       6.12459750       6.73725222      -0.31027515       0.41816208      -0.33043284      -0.00004668       0.00005928      -0.00000907       0.00013851      -0.00015870       0.00008756      -1.54888099
H        7.16849083       6.87005867       3.18562713      -0.25764301      -0.32556859      -0.19696488       0.00016154       0.00015012      -0.00015330      -0.00006045      -0.00001730       0.00015844      -1.01592212
H        2.89278573       7.13178775       3.12183493       0.00449514      -0.03523403       0.01424968       0.00000066       0.00004066       0.00000665      -0.00001644       0.00000210      -0.00000519      -0.00528761
H        4.65687144       5.29401134       6.15550171      -0.27332852       0.60977570       1.03822364       0.00091251       0.00039569       0.00058665       0.00032852      -0.00023148      -0.00016814      -1.66360793
H        6.46211639       6.11463256       3.63715872       0.40409572       0.38449889       0.19798434       0.00011014       0.00027967       0.00009334      -0.00002950      -0.00006530       0.00019464      -1.53054360
H        3.54815246       3.05115518       6.10702175       0.04088938       0.13465386      -0.46522676       0.00004354       0.00012105       0.00038706      -0.00005997      -0.00001135      -0.00000220      -0.55752513
H        5.24497288       4.68264663       3.87291671      -0.48913236      -0.32681390       0.29609988       0.00056705       0.00033417       0.00008980      -0.00002700      -0.00010286       0.00036417      -0.66198348
H        6.95596284       6.89858718       4.28163685      -0.29055177      -0.30492301       0.10505985       0.00008568       0.00015264      -0.00008891       0.00009577       0.00011199       0.00011664      -1.01087323
H        2.84564863       3.79335618       4.33088256       2.82140176      -1.16646726       0.35474030       0.00161556       0.00030757       0.00029780      -0.00022013       0.00011596      -0.00054830      -1.10127531
H        6.89178250       2.87215332       6.40982402      -0.01481772       0.03023209      -0.00131998       0.00000832       0.00003463       0.00000007      -0.00000151       0.00000074      -0.00001697      -0.00445512
H        3.81243700       2.81807815       5.03752650      -0.38227378       1.76113290      -1.41450112       0.00034823       0.00078560       0.00075857      -0.00065701       0.00007770      -0.00019665      -1.12606676
