20
Lattice="10.0 0.0 0.0 0.0 10.0 0.0 0.0 0.0 10.0" Properties=species:S:1:pos:R:3:forces:R:3:stresses:R:6:energies:R:1 energy=-65.66269609095436 stress="-0.004339847946054975 -0.0003519517428475196 0.002653331756066671 -0.0003519517428475196 -0.002457588708885946 0.00014074032417077994 0.002653331756066671 0.00014074032417077994 -1.2469753918572071e-05" free_energy=-65.66269609095436 pbc="F F F"
H        4.94827883       5.89532420       5.48881234      -0.53415005       2.41317865       0.38440643      -0.00010631      -0.00112211      -0.00217537      -0.00150024       0.00033472       0.00033523      -4.74812879
H        4.62861509       4.67312540       4.13458959       6.66122216      -1.74693148      -1.82344057      -0.00426010      -0.00123335       0.00051127       0.00034129      -0.00003744      -0.00101921      -2.93514514
H        4.63063166       5.35723799       6.42513855      -1.26477002       0.36230042      -0.58302930      -0.00045621      -0.00049510       0.00063558      -0.00090309       0.00097028       0.00008500      -3.62591521
H        3.67014716       5.82922242       6.67566545      -0.46475166       0.29215076       0.35039315       0.00011393       0.00018456       0.00018171       0.00033358      -0.00015183       0.00032639      -1.77766893
H        5.59504248       5.91483190       6.36780858      -0.56385591       0.15882163       0.46229918       0.00094579       0.00072275       0.00005820       0.00048745      -0.00040319      -0.00043948      -2.72085332
H        5.44345541       4.93920840       5.82732852      -0.59504475      -0.11373497      -0.29890662      -0.00147847      -0.00034868      -0.00005604      -0.00003618       0.00128525       0.00016389      -4.71946342
H        4.55149943       6.45843213       6.34563411      -0.07623381      -1.00052867      -0.45905660       0.00155480       0.00041524       0.00039194       0.00039661       0.00049939      -0.00002096      -2.65012631
H        5.30830909       5.22675012       4.74510199       1.73489044      -2.33048170       0.37017754      -0.00199642      -0.00229993      -0.00162113      -0.00231845      -0.00108716       0.00002235      -4.67824535
H        4.29154119       5.61974718       4.61388035      -0.62953699       1.02950040       0.16301056      -0.00035152       0.00006221      -0.00036036       0.00019002      -0.00050178       0.00098391      -4.32639300
H        3.84801426       5.92248663       5.59452572       2.65802707      -0.64948575      -0.54179855       0.00131939       0.00095218       0.00124485      -0.00003676       0.00147106      -0.00111003      -4.01280798
H        6.31677120       5.37504563       4.32256220       0.02467824       0.15193447       0.04609199       0.00030467       0.00012076       0.00037295       0.00006316      -0.00017017       0.00010478      -1.74770748
H        3.24789886       5.96443862       4.57091456       0.83143911       0.13475251       0.01904519       0.00029449       0.00027373       0.00112690       0.00092350       0.00056829      -0.00033039      -2.10136140
H        4.41793235       4.93334911       5.43644870       0.27464993      -0.76698593      -0.56723071      -0.00041210      -0.00093707       0.00006331       0.00058862      -0.00131193      -0.00038976      -5.16661707
H        6.14316369       4.56918628       5.07311181       1.20197030       0.96743694       0.20177023      -0.00018113       0.00112691      -0.00014025       0.00016610       0.00032438      -0.00014209      -3.16707546
H        3.36718206       5.04390302       5.14221661      -0.39975415       0.26575800       0.99423904       0.00050128      -0.00192592      -0.00012102      -0.00004335      -0.00059364       0.00109171      -3.20707297
H        5.11018447       4.17498335       5.04300634      -3.30799720       0.94279974      -1.45507607       0.00107370       0.00076848       0.00063320       0.00017352       0.00060434      -0.00001688      -3.75564988
H        6.07196039       5.71281892       5.36550745      -0.15668011      -0.38741092       0.33302762       0.00089822       0.00100199       0.00002187       0.00038548      -0.00041174      -0.00054065      -3.20487988
H        3.60825571       4.95479114       4.05970407      -6.77026287       3.66137759      -0.33536784      -0.00269937       0.00019058       0.00031373       0.00073815      -0.00009345       0.00044664      -2.61941999
H        5.76011999       3.87820096       5.89258112       0.26444459       0.69491318      -0.40262210       0.00035418       0.00064723       0.00030620      -0.00036246      -0.00014943      -0.00010772      -1.74797022
H        3.93275828       4.18689433       4.78297282       1.11171568      -4.07936486       3.14206742       0.00024134      -0.00056204      -0.00139999       0.00055378       0.00150738       0.00020530      -2.75019431
