20
Lattice="10.0 0.0 0.0 0.0 10.0 0.0 0.0 0.0 10.0" Properties=species:S:1:pos:R:3:forces:R:3:stresses:R:6:energies:R:1 energy=-69.603057957018 stress="0.00010265175547080988 9.866467854573917e-05 7.347088897521621e-05 9.866467854573917e-05 3.763882981525277e-05 1.901158020255177e-05 7.347088897521621e-05 1.901158020255177e-05 -6.18903689244505e-05" free_energy=-69.603057957018 pbc="F F F"
H        4.85234974       5.98072724       5.50046508       0.01641801       0.01670609       0.01091003      -0.00076637       0.00059303      -0.00095308      -0.00079897      -0.00077214      -0.00031320      -4.75495386
H        4.62824453       4.92423738       4.03924216       0.03590312       0.01840912      -0.02252243       0.00142290       0.00040669       0.00003720       0.00011437       0.00006820       0.00028202      -3.25922667
H        4.48383788       5.09808308       6.19045847      -0.02006717       0.09524691       0.01645687       0.00018404      -0.00014362      -0.00031923      -0.00127989       0.00053600       0.00039773      -4.25144048
H        3.40673536       5.27945325       6.38931350      -0.03286560      -0.02494085      -0.00086618       0.00079338       0.00052806       0.00035268       0.00068200       0.00029008       0.00042817      -2.67905809
H        5.31229115       5.79810410       6.46945280       0.01635557      -0.00758249       0.02557750       0.00143695       0.00020629       0.00035692       0.00034996      -0.00066922       0.00005418      -2.74416682
H        5.46553366       5.01606022       5.69061788      -0.06644063      -0.07919440      -0.05159376      -0.00202170      -0.00039596       0.00048628      -0.00027420       0.00004147      -0.00070199      -4.70581007
H        4.20393433       6.13020579       6.39759573      -0.00384133       0.00707281       0.00529297       0.00158019      -0.00009219       0.00047443       0.00019435      -0.00007113       0.00047003      -2.73394148
H        5.38428060       5.52846807       4.64514205      -0.09218513       0.03185301      -0.02962886      -0.00088872      -0.00021167       0.00107972       0.00003990       0.00078833      -0.00002455      -4.73579137
H        4.33279378       5.89217495       4.50970149       0.01635360       0.02501848       0.00568149       0.00079979       0.00033910       0.00031824      -0.00007259       0.00021067       0.00024544      -3.39373134
H        3.79507066       5.69128080       5.45891372       0.04139675      -0.08821018      -0.02118765      -0.00152603       0.00033635      -0.00093646      -0.00014368       0.00107297      -0.00066914      -4.64893069
H        6.36369278       6.01802997       4.48053786      -0.02297004      -0.04617910       0.00550243       0.00032933       0.00024235       0.00014826      -0.00012176      -0.00019770       0.00013347      -1.72284012
H        2.83576569       5.16171443       5.39762819       0.01815240      -0.00818643       0.00393338       0.00041695      -0.00027945       0.00100403       0.00022843      -0.00016632      -0.00003139      -2.21690548
H        4.56206107       5.00613001       5.12093389      -0.00362354       0.06554374       0.05007576      -0.00609615      -0.00514159      -0.00616720      -0.00082655      -0.00011541      -0.00057378      -5.59556089
H        6.30352442       5.01761955       4.97961260      -0.00479317       0.01627756      -0.02872055       0.00047609       0.00052030      -0.00004234       0.00055892       0.00014243       0.00012460      -3.19335330
H        3.71876908       4.53351070       5.59931696       0.00682816       0.02084513       0.01763876      -0.00062961       0.00125376       0.00082052       0.00055513      -0.00003981      -0.00006288      -3.72288671
H        5.37398532       4.41642175       4.71335029       0.08821475      -0.03685492       0.03160473       0.00101726       0.00055973       0.00056337       0.00042375       0.00028575       0.00101566      -3.76616130
H        5.95882471       5.96972167       5.51916109      -0.00700819      -0.00543566      -0.01392600       0.00053294       0.00004417       0.00100785       0.00062488      -0.00009067      -0.00018857      -3.23549062
H        3.61880601       5.01280470       4.58163384      -0.00855743       0.00756094      -0.00318001       0.00080914       0.00078171       0.00093225       0.00013697      -0.00084099       0.00000651      -3.71946183
H        6.03622991       4.08233030       5.54104536       0.01810071      -0.01905004       0.00904393       0.00044988       0.00038324       0.00003435      -0.00014930       0.00004079      -0.00010931      -1.77048851
H        4.25503097       4.07289961       4.68338759       0.00462917       0.01110025      -0.01009242       0.00178240       0.00010733       0.00074032      -0.00022270      -0.00043983      -0.00038431      -2.75285832
