20
Lattice="10.0 0.0 0.0 0.0 10.0 0.0 0.0 0.0 10.0" Properties=species:S:1:pos:R:3:forces:R:3:stresses:R:6:energies:R:1 energy=-69.260651901607 stress="-0.000300964394015228 -0.0013119394086265673 0.0005418863983524745 -0.0013119394086265673 0.0022496203899191798 -0.0021744987231382676 0.0005418863983524745 -0.0021744987231382676 0.0001780309366939708" free_energy=-69.260651901607 pbc="F F F"
H        5.02489662       5.96137991       5.39521957      -0.60582543      -0.46584477      -0.48865732      -0.00117861       0.00061599      -0.00021556      -0.00084463      -0.00070419       0.00022739      -4.69876515
H        4.58889006       4.73443056       4.10842961      -1.51088521       0.97490987       0.36692322       0.00147826       0.00095013       0.00018339       0.00011770      -0.00017949      -0.00066588      -3.21728335
H        4.45738940       5.22874046       6.20447601      -0.08565031       1.94247332       0.19121775       0.00090539       0.00040669       0.00002230      -0.00148820       0.00045555       0.00052572      -4.11215743
H        3.46657952       5.72130203       6.31418046      -0.05298060       0.75618980       0.51017300       0.00079397      -0.00013629       0.00009658       0.00018099       0.00016123       0.00018803      -2.72852123
H        5.42412377       5.79920055       6.39764702       0.34254116      -0.02293672       0.11111547       0.00141787      -0.00007239       0.00031946       0.00023231      -0.00061106       0.00018391      -2.73322908
H        5.40328335       4.92934314       5.72928425      -0.92906476       0.20873587      -0.23044976      -0.00202952      -0.00137012      -0.00024491      -0.00093522       0.00037166      -0.00035843      -4.74067827
H        4.43405535       6.32510729       6.26629247      -0.28719027       0.20005391       0.12262049       0.00086821       0.00002488       0.00021080       0.00035986      -0.00009640       0.00008242      -2.79538680
H        5.41235547       5.27439537       4.62358331       1.84460070      -1.56129430       1.32837060      -0.00217799       0.00012926       0.00073789      -0.00022907       0.00049135       0.00028725      -4.72718856
H        4.49398733       5.83617590       4.39374917      -0.22977658       0.11320912       0.11018328       0.00028381       0.00050979       0.00077337       0.00028785       0.00019675       0.00026038      -3.37167907
H        3.93379442       5.95313170       5.34934331      -0.43200947      -2.14089682       0.05455642      -0.00155302       0.00128351      -0.00014757      -0.00072216       0.00077749      -0.00018574      -4.54263989
H        6.45950081       5.50161132       4.37789650       0.41871980       0.39814908       0.19458559       0.00011003       0.00007393       0.00037571       0.00005509      -0.00023062      -0.00005072      -1.72416715
H        2.87495458       5.66094294       5.34271519      -0.10605375      -0.04202794      -0.37122124       0.00034654      -0.00016789       0.00074751       0.00039794      -0.00017160      -0.00022632      -2.22047222
H        4.49714891       5.03996137       5.15082730       1.60174285       0.29148819      -0.16676538      -0.00536415      -0.00434224      -0.00566579      -0.00047165       0.00012978      -0.00106734      -5.64945852
H        6.21710463       4.64479927       5.04954725      -0.30722156      -0.55939421      -0.31566340       0.00068622       0.00029545      -0.00030619       0.00038284       0.00034976       0.00016771      -3.19865194
H        3.55751047       4.84890349       5.63887951       0.12980084      -0.36634096       0.26718002      -0.00057261       0.00089660       0.00004304      -0.00000642       0.00033972       0.00069507      -3.68404695
H        5.16886158       4.19828479       4.92646136      -1.06655631       1.63949263      -1.35835512       0.00223098       0.00119486       0.00033067      -0.00029766       0.00011186       0.00043736      -3.76364923
H        6.09532651       5.70911298       5.42167933       0.37902462       0.21605395       0.03232398       0.00026612       0.00011255       0.00124298       0.00067546      -0.00010351      -0.00017629      -3.21260106
H        3.58594574       5.20378969       4.57440884       0.96807083      -1.02286147       0.17102519       0.00122745       0.00128665       0.00095420       0.00056489      -0.00074164      -0.00061659      -3.65965068
H        5.81508595       3.91066574       5.79397396      -0.06114527      -0.27587912      -0.16464869       0.00036149       0.00021739       0.00022878      -0.00018155       0.00011685      -0.00007940      -1.75587153
H        3.98096713       4.14869925       4.84891652      -0.01014128      -0.28327942      -0.36451412       0.00159859       0.00034087       0.00049137      -0.00025286      -0.00012161      -0.00094047      -2.72455379
