20
Lattice="10.0 0.0 0.0 0.0 10.0 0.0 0.0 0.0 10.0" Properties=species:S:1:pos:R:3:forces:R:3:stresses:R:6:energies:R:1 energy=-69.53054396629288 stress="0.0018288931202381246 -0.0015418879105975794 -0.0006488006684633005 -0.0015418879105975794 0.0019365932930345202 -3.527126373354635e-05 -0.0006488006684633005 -3.527126373354635e-05 -0.0013212519997663852" free_energy=-69.53054396629288 pbc="F F F"
H        4.91551250       5.98050522       5.46935682       0.56266639      -0.09600131      -0.10457854      -0.00078474       0.00066945      -0.00086623      -0.00076524      -0.00094376      -0.00032149      -4.73270533
H        4.63533397       4.86240488       4.06324187      -0.12158440       0.73073173      -0.79332419       0.00150059       0.00035935      -0.00035066       0.00025225       0.00011526      -0.00009285      -3.25259020
H        4.45810007       5.15954207       6.18797490      -0.61390795       0.43506620       0.34039635       0.00055062      -0.00010628      -0.00043112      -0.00138944       0.00040477       0.00024264      -4.22897172
H        3.39523285       5.45505144       6.35085874       0.32282994       0.35886759       0.23415149       0.00101432       0.00033801       0.00022110       0.00047131       0.00028065       0.00039201      -2.69132424
H        5.33878213       5.79329799       6.45132042       0.51203231       0.24968576       0.29925160       0.00135783       0.00009529       0.00022950       0.00034263      -0.00075564      -0.00009087      -2.73368903
H        5.44253860       4.96811595       5.71660624      -0.98979982      -0.50007398      -0.51510712      -0.00145280      -0.00014850       0.00046735      -0.00044757       0.00022363      -0.00082076      -4.72248426
H        4.27111948       6.22226875       6.35328756       0.04056692      -0.19812133      -0.20020071       0.00161833      -0.00004330       0.00051058       0.00027747      -0.00009895       0.00028694      -2.73946683
H        5.41939402       5.43711601       4.64729293       0.08950855      -1.28787202       0.03393586      -0.00120913       0.00035803       0.00092013      -0.00016180       0.00039932       0.00019943      -4.73810293
H        4.41893719       5.88869230       4.46607332      -0.53166628       0.02005792       0.09796617       0.00065504       0.00034745       0.00053793       0.00004462       0.00003347       0.00025974      -3.39140115
H        3.83796837       5.80420963       5.41611589       0.47961916      -1.15759108      -0.49868624      -0.00158062       0.00085176      -0.00037205      -0.00027659       0.00087483      -0.00064491      -4.63180349
H        6.45317254       5.80371550       4.47313376      -0.05903485       0.24889994      -0.39272623       0.00043109       0.00002932      -0.00001075      -0.00001647      -0.00015485       0.00012186      -1.71751822
H        2.83168677       5.37280743       5.35641165       0.22282331      -0.32305340      -0.22410198       0.00048749      -0.00018517       0.00097872       0.00028352      -0.00022103      -0.00024093      -2.21369840
H        4.54049549       5.02148088       5.12940275       0.30828778       0.39258442       0.66406928      -0.00547489      -0.00497808      -0.00644895      -0.00082803       0.00007800      -0.00057947      -5.60983642
H        6.27575400       4.84442698       5.00795551      -0.02547942      -0.04456604       0.39266397       0.00045793       0.00041233      -0.00012414       0.00070028       0.00014651       0.00004577      -3.18785099
H        3.64053270       4.65979909       5.60184120       0.11546854      -0.01781487      -0.25047819      -0.00049171       0.00129202       0.00061065       0.00039525       0.00008705       0.00015401      -3.71989528
H        5.29290183       4.31684751       4.79900074       0.10408552       0.77456735      -0.65197707       0.00109196       0.00094117       0.00037501       0.00015095       0.00024026       0.00097352      -3.77597908
H        6.01881999       5.86129480       5.49557618      -0.02291320       0.14352591       0.72665007       0.00055336       0.00017365       0.00075323       0.00062795      -0.00019729      -0.00038238      -3.22010916
H        3.61457334       5.09816107       4.56407132       0.18305926       0.14167830       0.21636245       0.00108310       0.00083631       0.00103209       0.00038434      -0.00091112      -0.00012472      -3.70954938
H        5.94326161       3.97603836       5.63445128      -0.26742808       0.49854789       0.10410922       0.00044594       0.00063438       0.00005234      -0.00012033       0.00002773      -0.00025909      -1.75807936
H        4.14764418       4.10420180       4.72353769      -0.30913366      -0.36911898       0.52162381       0.00157517       0.00005941       0.00059399       0.00003963      -0.00027763      -0.00066034      -2.75548851
