20
Lattice="10.0 0.0 0.0 0.0 10.0 0.0 0.0 0.0 10.0" Properties=species:S:1:pos:R:3:forces:R:3:stresses:R:6:energies:R:1 energy=-22.344515824551245 stress="0.006290116718868541 -0.001049947209960803 0.0008147087938458167 -0.001049947209960803 0.004258323459549743 -0.0009041918157113475 0.0008147087938458167 -0.0009041918157113475 -0.0030352161965720896" free_energy=-22.344515824551245 pbc="F F F"
H        5.23128760       5.98821012       6.82551070       0.48391332       0.66529613      -0.09339796      -0.00043088       0.00000728      -0.00000365      -0.00003052       0.00022749      -0.00002841      -2.08271453
H        4.00986998       3.55865513       4.19135786      -2.40295215       0.57815303       1.25400881       0.00166815       0.00111099       0.00064843      -0.00050632      -0.00029031      -0.00024727      -1.17027706
H        4.14671816       5.89461288       6.97634557      -0.88234151      -1.82881855      -0.26177034      -0.00047448       0.00006066       0.00037805       0.00019756      -0.00029714       0.00001010      -2.52190248
H        3.30968637       5.23654922       7.37771539       0.95349939       1.03981646      -0.82112990       0.00055657       0.00057465       0.00029626      -0.00023949      -0.00030206       0.00027132      -1.11307531
H        6.29853225       5.76758235       7.09339883      -0.23828606       0.02181694      -0.03087274       0.00026269      -0.00000135       0.00001967       0.00000027       0.00007005       0.00000940      -1.04524840
H        5.76671979       5.15602276       6.31952780      -0.63360426      -0.40367991      -0.44636132       0.00051809      -0.00013387       0.00000005      -0.00013105       0.00003294      -0.00003564      -1.54157248
H        3.81001041       6.95632826       6.96331828       0.31985020      -0.14809103      -0.02150050       0.00032142       0.00021831       0.00004387       0.00000962      -0.00008583      -0.00014105      -1.14027291
H        5.56530880       5.56748541       3.26122139       0.02366740       0.42306754      -0.36830972       0.00002134      -0.00013153      -0.00008573       0.00012658       0.00001252      -0.00001084      -1.03523471
H        3.13052075       4.83925568       4.05657208       0.84700204      -0.17451197      -0.03435448       0.00037426       0.00028344       0.00006005      -0.00001612       0.00006581      -0.00043674      -0.66257443
H        3.08472754       6.13412729       6.73105066      -0.01317181      -0.40867809      -0.00627399       0.00010520       0.00014165       0.00009223      -0.00004272      -0.00009929      -0.00012641      -1.55098512
H        7.17157780       6.88205557       3.21624784       1.18715353      -0.13688989      -6.20263739      -0.00006801       0.00001130      -0.00321108      -0.00006948       0.00063395       0.00004826      -0.93794343
H        2.89255081       7.13465581       3.12066522       0.00382925      -0.03693598       0.01505996       0.00000046       0.00004239       0.00000705      -0.00001728       0.00000179      -0.00000439      -0.00561118
H        4.65444490       5.29997779       6.13959170      -0.00857617       0.91770768       1.50649663       0.00110518       0.00050441       0.00075617       0.00046043      -0.00021162      -0.00018723      -1.65019761
H        6.46824727       6.11422002       3.62604769       0.27956555       0.30733543       0.61598030       0.00001297       0.00024155       0.00010585       0.00012306       0.00004920       0.00012207      -1.52914560
H        3.55303378       3.03451992       6.10795269      -0.07581675       0.23075885       0.00697506       0.00002576       0.00010536       0.00013347      -0.00011377       0.00004950       0.00001077      -0.55567998
H        5.25669434       4.68294123       3.86237385      -0.50886438      -0.58120952       0.48374042       0.00049626       0.00018086       0.00002576       0.00006798      -0.00006447       0.00029514      -0.64695204
H        6.97185964       6.91252777       4.25860613      -1.56022613      -0.38781807       5.70879019       0.00001576       0.00025258      -0.00304324       0.00008598       0.00073816       0.00019815      -0.93026965
H        2.85342176       3.79519616       4.32190672       2.49816123      -1.61918363       0.47238010       0.00147023       0.00004804       0.00026783      -0.00014603       0.00013736      -0.00059936      -1.10255185
H        6.89280268       2.86984131       6.40984973      -0.01500367       0.03046055      -0.00120343       0.00000845       0.00003482       0.00000005      -0.00000138       0.00000068      -0.00001715      -0.00450693
H        3.82374697       2.80521306       5.04825076      -0.25779902       1.51140403      -1.77561971       0.00030069       0.00070678       0.00047368      -0.00066151       0.00014598      -0.00018067      -1.11780012
