20
Lattice="10.0 0.0 0.0 0.0 10.0 0.0 0.0 0.0 10.0" Properties=species:S:1:pos:R:3:forces:R:3:stresses:R:6:energies:R:1 energy=712.0088015049545 stress="-2.0904033836188876 2.2367322457104235 0.680437639540528 2.2367322457104235 -5.361174617863222 0.12913319041788568 0.680437639540528 0.12913319041788568 -1.885268093045692" free_energy=712.0088015049545 pbc="F F F"
H        5.89542247       6.66438200       7.01687544      -0.25984899      -0.60501842      -0.29309631       0.00033245       0.00036128       0.00013334       0.00010465       0.00010431       0.00009846      -0.58345982
H        3.79877089       3.12555007       4.29568063     -58.02314458    1820.32394568   -2239.80685616      -0.00464567      -0.41930933      -0.62991967       0.51341524      -0.01937887       0.01774501      80.16311772
H        3.46082959       5.55032717       6.72136568    4846.62334819   -6870.11869831   -2407.55805569      -0.87335615      -2.02648697      -0.23460641      -0.51878708       0.44581773       1.13949347     246.20895257
H        2.88717381       5.15615207       7.14498447    -417.93013956    -303.11767085     310.54037100      -0.11895154      -0.06483456      -0.06533029       0.06266162       0.08811124      -0.08362691      16.36188750
H        7.15761619       5.17415430       7.36837791      -0.27836896       0.16363377      -0.12206552       0.00021883       0.00015531       0.00004653      -0.00003294       0.00009316      -0.00012960      -0.06009082
H        5.41467333       5.79183068       6.48435321     301.25412762     200.63264696      95.44608762      -0.10153114      -0.04493653      -0.01008257      -0.02137687      -0.03219759      -0.06784091       9.71352077
H        3.54328888       6.86600513       6.86510830     103.57589985     184.34530124      -4.67574744      -0.02169983      -0.06970933       0.00000069       0.00185077       0.00089252      -0.03954184       5.15715624
H        5.18961456       5.41374552       3.19149375    -245.25057598     389.37792446    -304.40242466      -0.04441467      -0.11232799      -0.06872116       0.08788109      -0.05542061       0.07095972      15.44845898
H        2.56706787       5.05808376       4.05506395       0.37574942      -1.30499679       0.12477700       0.00010383       0.00103706       0.00004352      -0.00012203       0.00002377      -0.00024665      -0.20174100
H        3.11956802       6.10145006       6.88323738   -4529.63257497    6988.32591555    2100.81277616      -0.77830311      -2.05244771      -0.17082308      -0.57492679       0.36011385       1.17911278     235.68404959
H        7.43292666       7.12748032       2.63163537      -0.70859990      -1.58669422       1.03018838       0.00017565       0.00085663       0.00038281      -0.00052423      -0.00024129       0.00037941      -0.28382629
H        2.89950078       7.22325089       3.08327975       0.00308747      -0.05544463       0.02170508       0.00001305       0.00005857       0.00001034      -0.00002341      -0.00000297      -0.00000150      -0.00824105
H        4.73724454       5.34138730       6.27040755    -303.31298011    -199.68872966     -94.25616566      -0.10046494      -0.04482226      -0.00990871      -0.02123742      -0.03271692      -0.06808408       9.90651668
H        6.96468253       6.05430187       3.29719404       0.25116656       1.38897089      -0.85964762       0.00052089       0.00102120       0.00041227      -0.00049425      -0.00024541       0.00057214      -0.37300347
H        3.57536920       2.72550967       6.47756606       0.09708354       0.05992881      -0.77833375       0.00002210       0.00008224       0.00067303      -0.00000183      -0.00008305      -0.00000746      -0.11866081
H        5.55371069       4.83635338       3.64302153     245.63157881    -389.14192350     304.40547465      -0.04451394      -0.11225864      -0.06869437       0.08785245      -0.05547133       0.07101271      15.44625973
H        7.06929049       7.32621327       5.02967176      -0.03819728      -0.09671657      -0.07938697       0.00002848       0.00005689       0.00018415       0.00003697      -0.00003951       0.00002228      -0.03427840
H        2.90049058       3.63913106       4.19331218      -8.73954586       5.75286511      -0.61059444      -0.00372471      -0.00005009       0.00016778      -0.00009448      -0.00019796       0.00179137      -0.67463713
H        6.90888897       2.78713150       6.39696292       0.00293673       0.02818361       0.01146951       0.00000037       0.00003364       0.00000557       0.00001369       0.00000143       0.00000351      -0.00387791
H        3.81563154       2.66753771       4.85791904      66.35899801   -1824.68342312    2241.04952482      -0.00021331      -0.41765403      -0.62924185       0.51293805      -0.01872486       0.01502035      80.26069845
