20
Lattice="10.0 0.0 0.0 0.0 10.0 0.0 0.0 0.0 10.0" Properties=species:S:1:pos:R:3:forces:R:3:stresses:R:6:energies:R:1 energy=-56.379677823081025 stress="0.004217339114232168 0.000394485471222765 0.0022199529263552497 0.000394485471222765 0.007072518480459745 -0.002946910259724092 0.0022199529263552497 -0.002946910259724092 -0.0020431999376530193" free_energy=-56.379677823081025 pbc="F F F"
H        4.83685725       6.05206601       5.62190326       0.57790130      -0.70314989       1.02324046      -0.00064685       0.00039700      -0.00174437      -0.00159387       0.00058987       0.00018907      -4.20246978
H        4.68520933       4.04152693       4.05297477      -1.28672926      -1.01012186      -0.00874962       0.00057887      -0.00023736       0.00033291       0.00008716      -0.00045289       0.00014741      -2.21763885
H        4.52516000       5.26932844       6.44343350      -1.91254472       3.15941934       1.97178011       0.00050973       0.00093018      -0.00097747      -0.00144765       0.00009016      -0.00049707      -3.52956775
H        3.51746938       5.69893418       6.69690408      -0.36077275      -1.46868815       0.26765572       0.00023882      -0.00014411       0.00010703       0.00041633      -0.00024808      -0.00049358      -1.73635720
H        5.41084185       5.91764498       6.55753586       0.12425824       0.94787244       0.00297546       0.00057671      -0.00004417       0.00041533       0.00021048      -0.00020819      -0.00039746      -2.74158576
H        5.43088786       5.07939782       5.82587745       3.20659268      -0.64521524       1.07763866      -0.00205217       0.00062173      -0.00001252      -0.00032046      -0.00032564      -0.00106292      -4.28308089
H        4.36402611       6.38418881       6.54140371       0.28019893      -0.81410399      -0.25819972       0.00040552       0.00063730       0.00009032       0.00058247       0.00099698      -0.00034206      -2.54861674
H        5.27313873       5.52595802       4.79116556      -0.71147206      -1.13132098      -1.92528250       0.00147976      -0.00067424       0.00034365      -0.00041152       0.00086070       0.00144573      -4.22131686
H        4.30130854       5.02608716       4.35027149       1.12513022      -0.74562925       0.12175900       0.00238356       0.00152376      -0.00060744      -0.00060960       0.00067697       0.00059173      -3.49763001
H        3.75335373       5.83707485       5.62684205       0.33780098       0.09578714       1.10475239       0.00052216       0.00079049       0.00165398       0.00065699       0.00142893       0.00053019      -3.05604471
H        6.27879372       5.95545578       4.50837605      -0.98746437      -0.09020908      -0.08708592       0.00072598       0.00007500       0.00008743      -0.00005964      -0.00033620       0.00034182      -1.68886629
H        3.10641546       6.50773691       3.49545561       0.15851285      -0.23470044       0.21402218       0.00009634       0.00018817       0.00016331      -0.00013444       0.00009763      -0.00010673      -0.05325659
H        4.45416029       5.04375049       5.40770487      -0.70391387      -1.21685759      -1.79727441      -0.00467903      -0.00244629      -0.00574099      -0.00119705      -0.00187493       0.00077268      -4.64493332
H        6.21291318       4.98417537       5.04508483      -1.04862081       0.19945947       1.48010782       0.00084274       0.00116092       0.00045456       0.00051926      -0.00001318      -0.00012095      -2.76963716
H        3.44270731       4.85922882       5.06451446      -0.57276113       0.82287043      -0.19265579      -0.00016630       0.00122687       0.00090488       0.00068838      -0.00036884      -0.00005912      -2.74972742
H        5.22567710       4.44037991       4.92428184       1.41323487      -0.03054744       0.13237811       0.00078629      -0.00036726       0.00012519      -0.00040086       0.00077372      -0.00032086      -3.72012313
H        5.95246406       6.01172239       5.57126724      -0.45346880      -1.38042550      -0.99184559       0.00073953       0.00079286       0.00051769       0.00086067       0.00010827      -0.00009266      -3.16356533
H        3.55873816       4.16712202       4.18135263       2.06044545       1.44131890       0.68023896       0.00115550       0.00070421       0.00038626       0.00041444       0.00023744       0.00046564      -2.12682672
H        6.35436192       3.80126688       6.11936979      -1.01105973       1.60320386      -1.05286200       0.00055009       0.00102274       0.00055147      -0.00055006       0.00033500      -0.00055239      -0.33485208
H        4.20727762       4.02693197       5.08179185      -0.23526801       1.20103782      -1.76259332       0.00017009       0.00091473       0.00090558      -0.00065793      -0.00014779      -0.00004400      -3.09358124
