20
Lattice="10.0 0.0 0.0 0.0 10.0 0.0 0.0 0.0 10.0" Properties=species:S:1:pos:R:3:forces:R:3:stresses:R:6:energies:R:1 energy=-66.5158098117296 stress="0.0016256353304984403 0.00012066563014472944 0.0023606968434563675 0.00012066563014472944 -0.0021164063800777977 0.002397325377782883 0.0023606968434563675 0.002397325377782883 -0.0007119572825456618" free_energy=-66.5158098117296 pbc="F F F"
H        4.98710008       5.91784655       5.47826930      -1.23800758      -0.66533897      -1.08106456      -0.00063576       0.00046246      -0.00237459      -0.00097257       0.00006751       0.00090218      -4.75251348
H        4.55081334       4.72832074       4.15683464      -0.31756259       0.81007546      -2.08139465      -0.00206471      -0.00037942       0.00022609       0.00064949      -0.00045638      -0.00132270      -3.24294280
H        4.58633882       5.27148876       6.31878726       0.58674660      -0.80989647       0.63524680      -0.00030624      -0.00033004       0.00038212       0.00003600       0.00002119       0.00088208      -3.86593017
H        3.71719065       5.80808088       6.76593948      -0.07588425      -0.32453214       0.19650005       0.00037078       0.00014911       0.00025607       0.00031906      -0.00003888       0.00003989      -1.76247708
H        5.57760784       5.80653497       6.38715258       0.45836279       0.09898622       0.69149633       0.00083564       0.00006496       0.00015925       0.00025641      -0.00068387       0.00000996      -2.75318445
H        5.44498371       4.92261724       5.73868383      -2.49423496      -2.09694523      -0.93168945      -0.00070928      -0.00120124      -0.00046559       0.00016539       0.00128245      -0.00011733      -4.74536601
H        4.60316698       6.38376485       6.39128169      -0.22932121       0.02362233       0.52603635       0.00047303       0.00025310      -0.00005831       0.00016382       0.00037507      -0.00004980      -2.70471761
H        5.30839580       5.25728581       4.69153351       1.05773863       0.12454700       0.43461917      -0.00297964      -0.00128334      -0.00194570      -0.00120074      -0.00011426      -0.00047521      -4.70169661
H        4.31875330       5.76616323       4.60096374      -0.70154862       0.50538571      -0.22007341       0.00069187       0.00029823       0.00087118       0.00079391      -0.00064965       0.00012054      -3.96169466
H        3.90930287       5.84568470       5.68093976       0.09833169       0.37402561      -3.32541931      -0.00054386       0.00011562      -0.00007623       0.00097847      -0.00071716      -0.00005746      -4.27232141
H        6.27040942       5.46617215       4.23361564       1.23141273       1.04210279       0.85743625      -0.00037596       0.00007336       0.00108962       0.00038082       0.00000298      -0.00011378      -1.70467025
H        3.23625415       5.94860883       4.81023077      -0.84099687       3.04865824       2.16999391       0.00039631      -0.00110890      -0.00062937      -0.00111724       0.00038663       0.00008720      -2.23144675
H        4.42684709       4.93210025       5.27492221      -0.00611801       2.70412302       2.74598618       0.00008870      -0.00167622      -0.00018300       0.00040868       0.00069941      -0.00005703      -5.52614325
H        6.17201745       4.63072458       4.96102751      -0.38927849       0.13274517       0.37698066       0.00074822       0.00062329      -0.00028081       0.00076657       0.00014385       0.00029883      -3.17585596
H        3.32007833       4.96306372       5.34521111       1.92630365      -0.45699545       0.40618113       0.00130981       0.00085597       0.00045160       0.00038245      -0.00025177       0.00006573      -2.99335362
H        5.12001786       4.16558235       4.93048450       0.74058115       1.33645057       0.32123925       0.00201981       0.00110290       0.00042117       0.00033407       0.00040298       0.00106843      -3.66446099
H        6.08314461       5.72122946       5.35900954       0.08762712      -0.72988417      -1.92929364       0.00071658       0.00071989       0.00169430       0.00094788      -0.00023185      -0.00038613      -3.20261485
H        3.51539879       5.06867558       4.26599509       1.61578938      -3.88021483      -1.14613115      -0.00005373      -0.00143129      -0.00006621      -0.00107413       0.00158603       0.00059967      -2.88238667
H        5.84844883       3.89779697       5.73759213      -0.20138069      -0.37605213      -0.04351628       0.00035039       0.00018586       0.00015422      -0.00013397       0.00016359      -0.00015653      -1.75445242
H        3.89549168       4.12823608       4.77903660      -1.30856049      -0.86086274       1.39686639       0.00129368       0.00038929      -0.00033778       0.00031296       0.00037283      -0.00121786      -2.61758077
