20
Lattice="10.0 0.0 0.0 0.0 10.0 0.0 0.0 0.0 10.0" Properties=species:S:1:pos:R:3:forces:R:3:stresses:R:6:energies:R:1 energy=-13.998182443818044 stress="-0.0139008779486389 0.0006503887528723336 0.0005962383310438426 0.0006503887528723336 0.010502111064416243 -0.004109354846947101 0.0005962383310438426 -0.004109354846947101 0.003312047933832108" free_energy=-13.998182443818044 pbc="F F F"
H        5.87062088       6.51633341       6.95476838      -0.40623393      -2.41217908      -1.21602416       0.00050517       0.00129689       0.00044518       0.00056327       0.00018482       0.00017759      -0.59926987
H        3.87302699       3.34881419       4.20388399      -0.90034731      -0.89868574       1.89367516       0.00058313       0.00087514       0.00102899      -0.00080430      -0.00010786      -0.00010390      -0.96593513
H        3.70637783       5.94626728       6.76151228      14.48839825      -6.04814186      -0.90359294      -0.00523381       0.00064099       0.00008123      -0.00029818       0.00025493       0.00109309      -1.68046597
H        3.13700040       4.97248878       7.11385947       0.74893987       4.00898896      -1.31822272       0.00093568       0.00224831       0.00022948      -0.00060489      -0.00021885       0.00008199      -0.95060238
H        7.02806141       5.23801997       7.29655537      -0.78863457       0.38511791      -0.44760961       0.00052160       0.00024852       0.00019138      -0.00009014       0.00029072      -0.00024601      -0.15561294
H        5.69941146       5.52545273       6.30951134       3.84967499       2.59258454       0.54000404      -0.00110292       0.00083476       0.00044213       0.00065936       0.00076513      -0.00037013      -1.02722333
H        3.40190816       7.01285148       6.80090701      -0.54365563       0.02576280       0.06899236       0.00021345       0.00003306       0.00000519      -0.00004010      -0.00001512       0.00024883      -1.03317748
H        5.72486975       5.66051626       3.16268994      -7.43019305      -4.40647000       0.46088535      -0.00296484       0.00053182       0.00030345      -0.00067798      -0.00057884      -0.00074365      -0.79786315
H        2.64217893       4.87777537       4.06799998      -0.13587747       1.59628587      -0.17550867       0.00008940      -0.00076121       0.00000188       0.00006283      -0.00001012       0.00005716      -0.52748583
H        2.69650186       6.12428079       6.85042194     -11.78612433       0.62143631       1.61241150      -0.00620711       0.00129338       0.00001611      -0.00039733       0.00067186       0.00083430      -1.14584943
H        7.37412836       7.04028322       2.69857236      -1.14101624      -1.64252551       0.96930238       0.00041415       0.00083672       0.00032361      -0.00044958      -0.00032256       0.00057853      -0.32242428
H        2.89817977       7.21018385       3.08877463      -0.00349199      -0.03181530       0.01335716       0.00000045       0.00003710       0.00000654      -0.00001558      -0.00000171       0.00000407      -0.00463601
H        4.69619239       5.25691748       6.61084766      -5.51842518       0.75667609       1.54928610       0.00012325       0.00065792      -0.00004003       0.00027500       0.00024597      -0.00090143      -1.08042767
H        6.70655732       6.04027723       3.25648933       7.58316219       4.10907308      -0.13782443      -0.00281169       0.00041462       0.00029911      -0.00053438      -0.00061600      -0.00064277      -0.73910515
H        3.60526789       2.74405430       6.24213544      -0.30842877       0.39259472       1.63550350      -0.00001475       0.00006555      -0.00078413      -0.00018118       0.00016190       0.00002243      -0.51954329
H        5.25122719       4.65304687       3.73972984       0.79527852       1.86728406      -1.03883252       0.00046515       0.00114526       0.00038332      -0.00060769      -0.00033393       0.00063985      -0.44377740
H        7.05224604       7.28752561       4.99452260      -0.05731428      -0.11489377      -0.10237339       0.00003547       0.00007204       0.00020554       0.00004045      -0.00002200       0.00004021      -0.03882295
H        2.82788378       3.80145371       4.17928401       1.25344924      -2.27837778       0.39590608       0.00048062      -0.00072274       0.00011294      -0.00003088       0.00008095      -0.00010285      -1.03682890
H        6.90889654       2.79962087       6.40102399      -0.00325140       0.03820102       0.00986482       0.00000287       0.00004807       0.00000459       0.00001198       0.00000082      -0.00000463      -0.00379990
H        3.79122464       2.57381432       5.17402134       0.30409108       1.43908369      -3.80920003       0.00006385       0.00070591       0.00005554      -0.00099003       0.00016612      -0.00001228      -0.92533137
