20
Lattice="10.0 0.0 0.0 0.0 10.0 0.0 0.0 0.0 10.0" Properties=species:S:1:pos:R:3:forces:R:3:stresses:R:6:energies:R:1 energy=-9.10817695612619 stress="-0.000676370372126332 0.007038125254840134 0.011378647113992254 0.007038125254840134 -0.0007209059850735999 -0.005241589897453123 0.011378647113992254 -0.005241589897453123 -0.0040585720717413966" free_energy=-9.10817695612619 pbc="F F F"
H        6.00938650       6.88561761       7.15789805      -0.12283568      -0.42724009      -0.22819750       0.00024151       0.00034098       0.00013754       0.00011830       0.00005328       0.00003193      -0.10544108
H        3.85108149       3.26837674       4.10236929      -1.29570719      -0.24034630       1.92157749       0.00088773       0.00093086       0.00105958      -0.00072411      -0.00014924      -0.00023723      -0.89247458
H        3.67578529       5.96863803       7.01143962     -22.28471316       8.22022857      16.46190847      -0.00524989      -0.00277872      -0.00469317      -0.00317003       0.00586563       0.00423139      -0.88894178
H        3.27069428       4.59903448       7.00628360       0.88948416       2.29663862      -0.48051619       0.00059513       0.00177965       0.00014954      -0.00013949      -0.00017823       0.00040896      -0.43969548
H        7.13758981       5.18547994       7.35889838      -0.28702967       0.12200263      -0.17794467       0.00020572       0.00014378       0.00009593      -0.00001262       0.00012627      -0.00008671      -0.06446987
H        5.63398883       5.35601755       6.17839715      -1.99913385       0.58565165       0.76002919       0.00164876       0.00028770       0.00027899       0.00016321      -0.00018523      -0.00020236      -0.42683424
H        3.75126011       7.03526803       6.79702303       0.04259219       1.43715633      -0.62029833       0.00048507      -0.00062686      -0.00002182       0.00036576      -0.00002057      -0.00006362      -0.67167286
H        5.72779284       5.68210537       3.10113762       1.19719658      -0.33070592       0.80083733       0.00143880       0.00081723       0.00022449      -0.00030640      -0.00011111       0.00086933      -0.47831046
H        2.59849821       4.92340104       4.06730145       0.38746151      -1.36601432       0.12481716       0.00013423       0.00086690       0.00003295      -0.00008894       0.00000873      -0.00022197      -0.51999615
H        2.37393401       6.05837506       6.79763033       2.93193810      -0.26951257       0.36802079       0.00191857       0.00047630       0.00006199      -0.00004635       0.00022545      -0.00008872      -0.47263509
H        7.37706062       7.00390127       2.71163232       2.33039318       5.19301104      -3.16438466      -0.00039762      -0.00215799      -0.00076873       0.00135651       0.00060205      -0.00096180      -0.43781721
H        2.89978974       7.21951399       3.08471287      -0.00447285      -0.03408712       0.01458710       0.00000067       0.00003913       0.00000717      -0.00001675      -0.00000220       0.00000514      -0.00512047
H        4.36700478       5.54942792       6.43772972      20.89063877     -12.18693953     -16.27120110      -0.00482910      -0.00170568      -0.00448288      -0.00341151       0.00514845       0.00406197      -0.45550806
H        6.98992552       6.16468136       3.22964044      -4.23257881      -5.89461777       3.16468719       0.00068405      -0.00198702      -0.00073893       0.00145581       0.00073999      -0.00056314      -0.69993217
H        3.59256336       2.71760355       6.36657963       0.36985745      -0.17348449      -2.35791817       0.00005132       0.00021821       0.00151359       0.00024712      -0.00024442      -0.00006360      -0.44282989
H        5.03948686       4.58285052       3.73415824       0.38186062       0.84068066      -0.50170855       0.00050876       0.00081212       0.00026976      -0.00039520      -0.00028504       0.00057059      -0.26945241
H        7.06666304       7.31935080       5.02383424      -0.03730672      -0.10534753      -0.11305711       0.00002636       0.00006336       0.00021638       0.00005481      -0.00002828       0.00002390      -0.03768010
H        2.82212885       3.79817182       4.17869749       1.29383239       0.40467095      -0.05410524       0.00084786       0.00103404       0.00012986      -0.00015004       0.00003476      -0.00057446      -1.02108903
H        6.90910820       2.78908896       6.39777177      -0.00386744       0.04120642       0.01012045       0.00000448       0.00005050       0.00000553       0.00001203       0.00000200      -0.00000519      -0.00463182
H        3.79801926       2.52307369       5.16437567      -0.44760958       1.88704878       0.34274635       0.00012120       0.00067460       0.00246368      -0.00055371      -0.00022364      -0.00009628      -0.77364421
