20
Lattice="10.0 0.0 0.0 0.0 10.0 0.0 0.0 0.0 10.0" Properties=species:S:1:pos:R:3:forces:R:3:stresses:R:6:energies:R:1 energy=-10.16322165459291 stress="0.0029560925484296645 0.00948304719203209 0.0072708106820990916 0.00948304719203209 0.008441692025363733 -0.00835618354682378 0.0072708106820990916 -0.00835618354682378 0.000939296081278521" free_energy=-10.16322165459291 pbc="F F F"
H        5.99710189       6.85908252       7.14160955      -0.15606737      -0.53643603      -0.29134363       0.00025472       0.00041021       0.00016261       0.00015682       0.00007082       0.00005448      -0.12444250
H        3.84680245       3.26615982       4.11853099      -1.12610201      -0.39747490       1.96617335       0.00076351       0.00088511       0.00109096      -0.00073964      -0.00012868      -0.00020467      -0.91116128
H        3.67784051       5.94292222       6.95476738     -19.21138236       8.18612282      12.13959152      -0.00422020      -0.00120827      -0.00329318      -0.00271486       0.00453641       0.00378391      -1.18519579
H        3.23173895       4.62555272       7.03163239       0.89076603       2.56114885      -0.57892010       0.00063795       0.00188299       0.00015577      -0.00020874      -0.00019566       0.00038997      -0.47505148
H        7.13533019       5.18616352       7.35720888      -0.29075754       0.13326009      -0.16878251       0.00021199       0.00014800       0.00008652      -0.00001693       0.00012206      -0.00009535      -0.06463387
H        5.59096846       5.41251012       6.22203916      -2.11428987       0.54481031       0.74712956       0.00167540       0.00032775       0.00027025       0.00017522      -0.00012507      -0.00009071      -0.56301788
H        3.73293784       7.04770169       6.79372305      -0.28145551      -0.68186038      -0.12692195       0.00053451       0.00047780       0.00002238       0.00009913      -0.00004180       0.00011204      -0.69072831
H        5.71480113       5.67484781       3.10920589       1.47753418      -0.52304556       1.04733722       0.00161730       0.00087453       0.00027050      -0.00034125      -0.00005538       0.00088740      -0.58419719
H        2.60108197       4.91666414       4.06792795       0.33433873      -1.08339132       0.09665547       0.00012653       0.00070321       0.00003060      -0.00007320       0.00000736      -0.00019220      -0.52477851
H        2.45299684       6.05371751       6.82886629       3.40238154      -0.40136958       0.27184138       0.00207723       0.00066716       0.00004448      -0.00006720       0.00014235      -0.00011368      -0.61975071
H        7.41669704       7.09217697       2.65737464      -0.92027703      -1.82414978       1.15227657       0.00026138       0.00094739       0.00040300      -0.00056178      -0.00028911       0.00047844      -0.34864595
H        2.89967809       7.21939702       3.08478432      -0.00435047      -0.03355026       0.01432416       0.00000065       0.00003863       0.00000704      -0.00001649      -0.00000214       0.00000501      -0.00501047
H        4.40124126       5.50774035       6.41363368      17.82108471      -9.99892752     -12.17232307      -0.00398216      -0.00153211      -0.00313545      -0.00267934       0.00400389       0.00359339      -0.68534346
H        6.92512794       6.06736583       3.28261451      -1.35418625       1.10799830      -1.29791440       0.00156346       0.00111395       0.00044720      -0.00044566      -0.00008057       0.00089786      -0.69760302
H        3.59630933       2.71581102       6.34288162       0.33983464      -0.14804750      -2.20320685       0.00004740       0.00019027       0.00138446       0.00020539      -0.00021934      -0.00005577      -0.48131295
H        5.07354201       4.59612047       3.73047080       0.51301518       1.08543637      -0.62835156       0.00050896       0.00088821       0.00029894      -0.00044606      -0.00030577       0.00059689      -0.29735705
H        7.06637586       7.31848368       5.02275554      -0.04155009      -0.10437608      -0.09767340       0.00002775       0.00006622       0.00020025       0.00005080      -0.00002636       0.00002681      -0.03567026
H        2.82777741       3.80050482       4.17685141       1.14041258       0.20712885       0.01771023       0.00072812       0.00084630       0.00013003      -0.00014542       0.00005289      -0.00049507      -1.03190934
H        6.90902122       2.78951724       6.39783949      -0.00298459       0.03931323       0.01049417       0.00000402       0.00004838       0.00000546       0.00001249       0.00000177      -0.00000421      -0.00418976
H        3.79439120       2.53753828       5.17279336      -0.41596452       1.86741011       0.10190385       0.00011756       0.00066595       0.00235748      -0.00059945      -0.00019685      -0.00009149      -0.83322189
