20
Lattice="10.0 0.0 0.0 0.0 10.0 0.0 0.0 0.0 10.0" Properties=species:S:1:pos:R:3:forces:R:3:stresses:R:6:energies:R:1 energy=-28.63944786762668 stress="-0.0007697286390120989 0.0035369318090038224 -0.0017009420865194064 0.0035369318090038224 0.004835693212856468 -0.0017426930775947388 -0.0017009420865194064 -0.0017426930775947388 0.0087692390800976" free_energy=-28.63944786762668 pbc="F F F"
H        5.06026138       6.16950316       6.44747975       5.30349304      -2.24640124      -1.27360262      -0.00263290      -0.00136676       0.00001348      -0.00034414       0.00065474       0.00199897      -2.46428795
H        4.30032530       3.74927948       4.04542667      -1.04590089       1.23170410       0.07239727       0.00119837      -0.00003874      -0.00003887       0.00045544      -0.00036603      -0.00016851      -1.92769837
H        4.31060274       5.58271847       7.03995170       3.87120504       1.45974510      -3.97193483       0.00062474       0.00063985       0.00124431       0.00038065       0.00003010      -0.00071201      -2.70750045
H        3.38508395       5.17871080       7.45168478      -1.74022172       0.10678971      -0.41301663      -0.00069567       0.00036577       0.00048046      -0.00022276       0.00023859      -0.00028972      -1.09123944
H        5.84182478       5.93893535       7.22478995      -1.37806433      -0.16460329      -0.48966211       0.00102270       0.00010259       0.00019887       0.00003341       0.00029890       0.00011988      -1.19022870
H        5.59427066       5.20799233       6.40927801      -0.28433378      -0.97505096       0.54210495       0.00059987      -0.00044405       0.00028972       0.00011231      -0.00040981       0.00009193      -1.71512159
H        4.14221107       6.65012686       6.64678990      -3.35949569       3.36049919       1.84286674      -0.00359433      -0.00026883       0.00014284      -0.00050289       0.00051274       0.00035349      -1.56569474
H        5.35918702       5.32675964       3.39704442      -0.23779129      -0.86042457       2.32741600       0.00110835       0.00086808       0.00095734      -0.00051981      -0.00029090       0.00080785      -1.14028165
H        3.94613561       4.80269384       4.09518952      -3.54521109       1.20067676      -0.39062912      -0.00167105       0.00003573       0.00043186      -0.00018799      -0.00048579       0.00064979      -1.66618426
H        3.33538661       5.93106678       6.58510697      -0.78317701      -3.55894932       0.39609219       0.00013145      -0.00025718       0.00060254      -0.00025921      -0.00024266      -0.00118870      -1.67208219
H        6.75654425       6.46909343       3.23879801      -0.94658025      -1.46580100      -2.09914614       0.00031892       0.00023369      -0.00121287      -0.00058929      -0.00030777       0.00029194      -1.02074492
H        2.90592707       7.02488860       3.16501454       0.02016565      -0.02990050       0.01073478       0.00001694       0.00003157       0.00000469      -0.00001170       0.00000619      -0.00002001      -0.00340897
H        4.59429705       5.29357139       5.91818720      -1.84992260       1.25610850       2.35720103       0.00082393       0.00099328       0.00213248       0.00095290      -0.00064339      -0.00020578      -1.89693752
H        6.20785887       5.80796079       3.99189991       0.02310242       0.80905595      -0.63204269       0.00093693       0.00098496       0.00052990       0.00000847       0.00005573       0.00089082      -1.55900522
H        3.38148052       3.82557755       5.78138481       0.13460344       0.92183649      -2.58750397       0.00026989       0.00046220       0.00185919      -0.00021629       0.00005016       0.00012862      -1.00632843
H        4.99220006       4.61666323       4.26813694       4.14261041       0.33916856      -0.42123066      -0.00125299       0.00096915       0.00101552      -0.00042979      -0.00079880       0.00112423      -1.64342249
H        6.83442084       6.72773507       4.29159797      -0.59041899      -0.44087025       2.41233318       0.00028046       0.00045024      -0.00136461      -0.00018790       0.00000777       0.00036018      -0.97786542
H        3.20795860       4.09632965       4.55593869       3.10253599      -1.63255282       1.61671815       0.00157013       0.00044795       0.00174618      -0.00020801      -0.00024836      -0.00050464      -1.79070496
H        6.85441182       2.96484310       6.41067168      -0.01564151       0.02784311      -0.00001730       0.00000986       0.00003123       0.00000000      -0.00000002       0.00000001      -0.00001754      -0.00413128
H        3.88137338       3.26552821       4.94313948      -0.82095683       0.66112648       0.70092178       0.00016468       0.00059497      -0.00026381      -0.00000606       0.00023763      -0.00017383      -1.59657933
