20
Lattice="10.0 0.0 0.0 0.0 10.0 0.0 0.0 0.0 10.0" Properties=species:S:1:pos:R:3:forces:R:3:stresses:R:6:energies:R:1 energy=-54.75704755375807 stress="-0.0029192208269822398 0.0037021317946169937 0.0008054204322305221 0.0037021317946169937 0.00416606491237769 -0.00025171924151254414 0.0008054204322305221 -0.00025171924151254414 0.004793593550757988" free_energy=-54.75704755375807 pbc="F F F"
H        4.88847330       5.99754344       5.66141374       2.67106633      -1.01624800      -1.81618678      -0.00279305       0.00079840       0.00006467      -0.00013249      -0.00055626      -0.00058652      -4.21356218
H        4.42085197       4.07067010       3.93415416       5.79787624      -3.50498259       0.38720429      -0.00141760      -0.00135930       0.00102874      -0.00011716       0.00111711       0.00108013      -2.06247051
H        4.50690112       5.24280370       6.45724636       4.01395404      -1.85732504      -2.90204656       0.00064020      -0.00071944       0.00067196      -0.00080271      -0.00046717       0.00035754      -3.56684984
H        3.54252571       5.62051125       6.81080283      -0.80925306       0.77648265       0.26414861      -0.00013983       0.00008727       0.00026338       0.00007817       0.00000002       0.00047410      -1.68414518
H        5.45287115       5.82465656       6.58264464      -0.03430256      -0.52852648      -0.70342908       0.00098001       0.00051826       0.00068514       0.00061294      -0.00057042      -0.00011613      -2.72113764
H        5.51218364       5.02724387       5.77100400      -2.75801938       0.52171719       2.05576692      -0.00016147       0.00153133       0.00135341       0.00097226      -0.00023387      -0.00068827      -4.00968455
H        4.41386531       6.31931135       6.61735406       0.22687272       0.48047365      -0.62072613       0.00117428      -0.00049762       0.00055632       0.00027992       0.00004515      -0.00001869      -2.62299568
H        5.29829976       5.47159757       4.75765271      -0.88527809      -1.78892920       2.46893611       0.00123430       0.00195470       0.00152111       0.00049495       0.00041007       0.00086219      -4.15475045
H        4.32897192       5.07301847       4.32888035       0.77152546       1.00898512       1.32733600       0.00140938       0.00016484      -0.00049290      -0.00105482       0.00029945       0.00002168      -3.54037416
H        3.83428291       5.83605029       5.75976661      -2.05004203      -1.18922877       0.46985851      -0.00129850       0.00055073       0.00062999       0.00043107       0.00038392      -0.00084881      -3.24262061
H        6.20315081       6.07029061       4.48337296      -0.69897681      -0.33827413       0.90774221       0.00047225       0.00023063       0.00061308      -0.00017993      -0.00039041       0.00022638      -1.68062677
H        2.99838789       6.71799964       3.32540820       0.06707942      -0.12753654       0.10062464       0.00003984       0.00011366       0.00007687      -0.00007862       0.00004301      -0.00005320      -0.02487538
H        4.50123302       5.00378564       5.39129518      -3.18503860       4.22116625       3.85427287      -0.00250578      -0.00244432      -0.00328179      -0.00096308      -0.00074369       0.00014453      -4.72175715
H        6.31572947       5.09745781       5.02980443      -0.46369569      -0.45107195      -0.87299359       0.00081135       0.00054360      -0.00017461       0.00028689       0.00036365       0.00028807      -2.36222766
H        3.45453903       5.08202412       5.03545502       0.63143191       0.09923495       0.57437694       0.00066569       0.00010461       0.00020773      -0.00012089      -0.00009149      -0.00012075      -2.81755403
H        5.11934180       4.29138345       4.87572362       2.75685390       3.69401049      -2.91808842       0.00102761       0.00234111       0.00170496      -0.00010724       0.00215457       0.00109080      -3.08495338
H        5.98216893       6.01712783       5.58769441      -0.40710552      -1.14558100      -1.17865930       0.00025341       0.00036936       0.00142200       0.00050228       0.00023523       0.00051288      -3.09404656
H        3.42959480       4.42121373       4.14854374      -5.49494461       2.29273942      -2.22591457      -0.00215877      -0.00042425      -0.00130713       0.00017311      -0.00007069       0.00121552      -2.05860562
H        6.65144482       3.32849939       6.36201628      -0.15391365       0.24199268      -0.13408425       0.00010130       0.00021476       0.00008048      -0.00010385       0.00006587      -0.00012345      -0.04463174
H        4.03694426       4.11678891       4.98727761       0.00390999      -1.38909870       0.96186158      -0.00125381       0.00008776      -0.00082983      -0.00042252      -0.00118864      -0.00001588      -3.04917845
