20
Lattice="10.0 0.0 0.0 0.0 10.0 0.0 0.0 0.0 10.0" Properties=species:S:1:pos:R:3:forces:R:3:stresses:R:6:energies:R:1 energy=-69.60317001708671 stress="0.00020003957679265647 1.2541741388214835e-05 5.710928820653651e-05 1.2541741388214835e-05 4.332413599388321e-05 -1.4691756807511381e-05 5.710928820653651e-05 -1.4691756807511381e-05 -8.820312063003204e-05" free_energy=-69.60317001708671 pbc="F F F"
H        4.85417051       5.98091419       5.49945781      -0.00745773       0.00808341       0.01103045      -0.00075533       0.00059256      -0.00094882      -0.00080383      -0.00076854      -0.00031059      -4.75443144
H        4.62821980       4.92325720       4.03990142       0.01766654       0.02100746      -0.04101658       0.00142481       0.00040345       0.00002814       0.00011355       0.00006476       0.00026737      -3.25954626
H        4.48315209       5.10005449       6.19070920      -0.02070466       0.12121765       0.02031002       0.00019201      -0.00014323      -0.00031475      -0.00128430       0.00052857       0.00039136      -4.25089509
H        3.40630167       5.28448601       6.38876649      -0.02667483      -0.01802767       0.01409796       0.00080138       0.00052639       0.00034429       0.00068080       0.00029382       0.00043013      -2.67864424
H        5.31368214       5.79803280       6.46867924       0.00741679      -0.00800589       0.01150955       0.00144277       0.00020898       0.00036230       0.00035299      -0.00066739       0.00004783      -2.74400101
H        5.46468044       5.01429542       5.69100733      -0.06594992      -0.04921383      -0.02764320      -0.00202204      -0.00038333       0.00047901      -0.00028025       0.00003807      -0.00069909      -4.70604243
H        4.20602531       6.13339780       6.39604953      -0.00524328      -0.01152264       0.01166614       0.00158770      -0.00008531       0.00047057       0.00019628      -0.00006820       0.00046537      -2.73352644
H        5.38504510       5.52600662       4.64482930      -0.07825576       0.02738900      -0.02083974      -0.00087441      -0.00020958       0.00107070       0.00002581       0.00078120      -0.00003998      -4.73644671
H        4.33425093       5.89268748       4.50875380       0.04440363      -0.00533636       0.01532009       0.00081302       0.00034947       0.00032523      -0.00007352       0.00021222       0.00023815      -3.39354981
H        3.79570034       5.69432730       5.45806996       0.08662141      -0.09539783      -0.03068852      -0.00150515       0.00034809      -0.00093520      -0.00014660       0.00107607      -0.00066281      -4.64837950
H        6.36645596       6.01142665       4.47947105      -0.02521633      -0.01602193      -0.00766806       0.00033149       0.00022572       0.00014605      -0.00011319      -0.00019823       0.00013333      -1.72280034
H        2.83547899       5.16624981       5.39697563       0.00763831       0.00322773       0.01093170       0.00041304      -0.00028047       0.00100036       0.00023087      -0.00016364      -0.00002825      -2.21696664
H        4.56122742       5.00677205       5.12130267       0.01525556       0.05747053       0.03707688      -0.00609010      -0.00513531      -0.00616988      -0.00082616      -0.00012718      -0.00058427      -5.59584417
H        6.30309858       5.01290080       4.98051944      -0.01407753      -0.00086533      -0.02826510       0.00048091       0.00049732      -0.00004984       0.00055981       0.00014906       0.00011340      -3.19390423
H        3.71694159       4.53668750       5.60033862       0.01261987       0.00418991      -0.02172148      -0.00063722       0.00125424       0.00082605       0.00054897      -0.00004282      -0.00006007      -3.72204969
H        5.37225527       4.41409418       4.71522827       0.04450680      -0.03396435       0.02430705       0.00103231       0.00055811       0.00056036       0.00041611       0.00028208       0.00099737      -3.76779587
H        5.96049483       5.96645210       5.51788274       0.00518641       0.00740004       0.01332112       0.00052497       0.00004345       0.00099824       0.00061748      -0.00009449      -0.00018811      -3.23634213
H        3.61831995       5.01496403       4.58163409       0.00150597      -0.00043536      -0.00396314       0.00080748       0.00078426       0.00093703       0.00013539      -0.00084191       0.00000552      -3.71911622
H        6.03380541       4.07918816       5.54344906       0.00769925      -0.01415879       0.00178277       0.00045090       0.00038435       0.00003887      -0.00014987       0.00004404      -0.00011192      -1.77011802
H        4.25245532       4.07378300       4.68448491      -0.00694052       0.00296426       0.01045208       0.00178151       0.00010418       0.00074308      -0.00021504      -0.00044038      -0.00039221      -2.75276977
