20
Lattice="10.0 0.0 0.0 0.0 10.0 0.0 0.0 0.0 10.0" Properties=species:S:1:pos:R:3:forces:R:3:stresses:R:6:energies:R:1 energy=-69.40641602471945 stress="0.0018990189356790721 -0.0016307528532971969 -4.806420367009781e-05 -0.0016307528532971969 0.002494886525048034 -0.0009466231860246261 -4.806420367009781e-05 -0.0009466231860246261 -0.0009919993219114258" free_energy=-69.40641602471945 pbc="F F F"
H        4.97758692       5.96877398       5.42285424       0.12163904      -0.02268570      -0.04569850      -0.00071491       0.00048234      -0.00050359      -0.00090418      -0.00075595      -0.00014671      -4.73711657
H        4.62789024       4.79109213       4.07975038      -1.48249590       1.21054822      -0.56968100       0.00163393       0.00070884      -0.00028905       0.00026632      -0.00021256      -0.00044861      -3.19173270
H        4.46338290       5.20854536       6.18732949      -1.00577434       1.40732589       0.59530811       0.00016094      -0.00002806      -0.00022577      -0.00151445       0.00053447       0.00038940      -4.20287707
H        3.44134990       5.61852001       6.34900989      -0.11012471      -0.12059231      -0.01288838       0.00091893       0.00031544       0.00026450       0.00054000       0.00032846       0.00025016      -2.70180777
H        5.39661470       5.79392101       6.41437201       0.05905401       0.02050815       0.11379006       0.00134114       0.00016118       0.00026649       0.00035788      -0.00052119      -0.00005336      -2.76139757
H        5.40972643       4.93499698       5.71523220       0.55952868       0.21289426       0.15376592      -0.00255573      -0.00077356      -0.00017615      -0.00076927       0.00024806      -0.00035217      -4.71687916
H        4.37214786       6.29262872       6.30159716      -0.03859353       0.03637833       0.01375874       0.00131550      -0.00006551       0.00036612       0.00030346      -0.00005305       0.00010501      -2.76791254
H        5.42878165       5.35014056       4.62720129       0.38735751      -1.37449872       0.91573495      -0.00109480       0.00056807       0.00097282      -0.00032900       0.00034342       0.00027447      -4.72953331
H        4.45695102       5.86179110       4.42391010       0.00989189       0.12353478      -0.00304320       0.00081588       0.00038095       0.00068816       0.00039616       0.00005335       0.00007802      -3.37663261
H        3.88425587       5.88484735       5.38814213       0.90167520      -1.32784836      -0.49333451      -0.00126389       0.00097195      -0.00035400      -0.00053139       0.00082356      -0.00045811      -4.61719255
H        6.48480396       5.63731219       4.44191006      -0.15850473      -0.07680308      -0.04216510       0.00045124       0.00017080       0.00012779      -0.00009512      -0.00022115       0.00010977      -1.71959632
H        2.84480056       5.52907320       5.37002738       0.08631853      -0.00217819       0.06336024       0.00041499      -0.00018694       0.00092246       0.00034481      -0.00006891      -0.00015644      -2.21322586
H        4.51724915       5.03362179       5.12977336      -0.55925524      -0.25732914      -0.11068684      -0.00522278      -0.00502836      -0.00617899      -0.00055296      -0.00008808      -0.00081513      -5.61652273
H        6.23791374       4.71604294       5.02769027       0.04317014       0.06657933      -0.01548621       0.00050335       0.00058502      -0.00014569       0.00048846       0.00023596       0.00014646      -3.19722997
H        3.59920794       4.76786572       5.62959165      -0.07963087       0.14847162       0.00531959      -0.00061757       0.00128398       0.00055883       0.00034302       0.00010213       0.00034522      -3.72230466
H        5.21709943       4.24107075       4.86228433      -0.53301676       1.15674620      -1.07525956       0.00169628       0.00111347       0.00008929      -0.00009566       0.00002711       0.00080169      -3.75369949
H        6.06607784       5.76455426       5.46695347      -0.00160395       0.01559548       0.08338827       0.00045564       0.00028569       0.00079448       0.00068156       0.00004448      -0.00030629      -3.23787906
H        3.57914733       5.17194668       4.57538511       1.74100922      -0.97875688       0.23799785       0.00164029       0.00091953       0.00113349       0.00034506      -0.00071620      -0.00048974      -3.65091203
H        5.85169150       3.92295511       5.72146126       0.02418767      -0.01484819      -0.04154060       0.00035758       0.00037270       0.00013223      -0.00017833       0.00004392      -0.00010001      -1.75621865
H        4.03508266       4.14027793       4.77303517       0.03516814      -0.22304169       0.22736017       0.00166303       0.00025736       0.00056457      -0.00004299      -0.00019590      -0.00080438      -2.73574537
