20
Lattice="10.0 0.0 0.0 0.0 10.0 0.0 0.0 0.0 10.0" Properties=species:S:1:pos:R:3:forces:R:3:stresses:R:6:energies:R:1 energy=-12.781691681773946 stress="0.0006728438511629867 -0.014211986030025015 0.006275339953609971 -0.014211986030025015 -0.0028788452695866756 0.00842601736341405 0.006275339953609971 0.00842601736341405 0.0016390080499019996" free_energy=-12.781691681773946 pbc="F F F"
H        5.86937379       6.46531126       6.91889877      -0.31749152      -2.31606027      -1.06638722       0.00057235       0.00123393       0.00041125       0.00047560       0.00013848       0.00013464      -0.64376424
H        3.89345202       3.37011230       4.19019444      -1.33433401      -0.83602633       1.79861839       0.00084663       0.00096309       0.00094699      -0.00081265      -0.00012117      -0.00014957      -0.94282729
H        3.69944581       5.95972633       6.82985985       1.64100183      -1.18561671       0.10029661       0.00100219       0.00224134       0.00007957      -0.00013931      -0.00026380      -0.00048319      -1.87784358
H        3.17688989       4.94831487       7.09989428       0.67166924       3.48599732      -1.09492062       0.00102213       0.00199275       0.00017590      -0.00050256      -0.00012961       0.00001098      -0.88469129
H        7.02410700       5.24045948       7.29533437      -0.89336430       0.42243407      -0.55246614       0.00056988       0.00025902       0.00024599      -0.00010598       0.00034202      -0.00026375      -0.17641716
H        5.77142159       5.49100495       6.26629450      -1.05489291       1.15995069       2.12529098       0.00134159       0.00086691       0.00074871       0.00038551      -0.00007453       0.00017710      -1.05767511
H        3.38976265       7.09216457       6.79495917      -0.93897711      -3.82849548       0.06009828       0.00075461       0.00209094       0.00000406      -0.00003946       0.00000572       0.00040420      -0.88584403
H        5.76472831       5.67994532       3.16342908      -1.48962501      -2.05490120       0.99434559      -0.00001369       0.00093674       0.00031837      -0.00054568      -0.00029028       0.00038914      -0.86458857
H        2.63942018       4.90792897       4.06442057       0.35111155      -1.38018782       0.14143893       0.00013037       0.00088255       0.00003341      -0.00010055       0.00001624      -0.00020904      -0.52550354
H        2.60200014       6.12107758       6.79238966       1.64123798       0.18308915       0.42569607       0.00047691       0.00194057       0.00008473      -0.00025848       0.00011607       0.00026073      -1.17147938
H        7.27413831       6.89565581       2.77903628      19.54147944      27.90638479     -15.20073473      -0.00493246      -0.01012974      -0.00295791       0.00557183       0.00388642      -0.00708704       0.32716166
H        2.89814510       7.20910894       3.08920722      -0.00387729      -0.03448584       0.01461470       0.00000050       0.00003968       0.00000713      -0.00001682      -0.00000189       0.00000446      -0.00517634
H        4.70462684       5.27080288       6.69652145      -0.70464189       2.00002556      -0.11828570       0.00278593       0.00085572       0.00020938       0.00003921      -0.00056786      -0.00020365      -1.10451572
H        6.76174575       6.16701279       3.17741395     -19.00884916     -27.65816072      15.44295035      -0.00536624      -0.01021504      -0.00295992       0.00561212       0.00391490      -0.00730185      -0.15634515
H        3.59493999       2.75714128       6.29704161       0.37916644      -0.28433033      -2.25929541       0.00005271       0.00013717       0.00139398       0.00021010      -0.00022413      -0.00004531      -0.47087026
H        5.25066256       4.64968714       3.74398706       0.74816710       1.71867090      -0.96165665       0.00046831       0.00110889       0.00035017      -0.00058361      -0.00032936       0.00064247      -0.39769568
H        7.05100207       7.28481080       4.99237904      -0.05884200      -0.12429158      -0.12544375       0.00003496       0.00007295       0.00023268       0.00004546      -0.00002189       0.00004010      -0.04347487
H        2.81546668       3.77581702       4.18236310       1.21173209       0.58628977       0.07229123       0.00078345       0.00094648       0.00012434      -0.00019683       0.00010505      -0.00045366      -1.03043498
H        6.90910732       2.80019950       6.40138104      -0.00377837       0.03977411       0.00956015       0.00000297       0.00005004       0.00000458       0.00001159       0.00000093      -0.00000525      -0.00414459
H        3.80132559       2.54369595       5.13250546      -0.37689208       2.19993991       0.19398892       0.00013974       0.00084717       0.00218560      -0.00062347      -0.00022597      -0.00007351      -0.86556155
