20
Lattice="10.0 0.0 0.0 0.0 10.0 0.0 0.0 0.0 10.0" Properties=species:S:1:pos:R:3:forces:R:3:stresses:R:6:energies:R:1 energy=-40.308532143689185 stress="0.013178512143204061 0.00036844282035225934 -0.0007036012594348408 0.00036844282035225934 0.010493865753862068 -0.003978653612442277 -0.0007036012594348408 -0.003978653612442277 0.005327336038640013" free_energy=-40.308532143689185 pbc="F F F"
H        5.05107693       5.84327438       5.88027826      -0.12361355       1.63640408      -0.32777355       0.00159320       0.00049424       0.00146466       0.00153714       0.00039393      -0.00083697      -2.45952324
H        4.31796293       3.95087245       4.09962984      -1.09730044       1.62773186       1.77188563       0.00050452       0.00097541       0.00115878       0.00021987      -0.00056820      -0.00004432      -2.20293002
H        4.51002371       5.32950237       6.65058029      -7.76855112       0.67030323       5.87504283      -0.00179366      -0.00110990      -0.00238944      -0.00022000       0.00161682      -0.00025562      -3.49581657
H        3.47150929       5.32973617       7.08678360       2.18353810       1.93505818      -1.98528710       0.00108318       0.00107842       0.00106198      -0.00026523      -0.00052779       0.00068520      -1.47361398
H        5.16376361       6.02661208       7.20374734       0.64517315      -1.10792949      -2.45061555       0.00009219       0.00052983       0.00170029       0.00061215      -0.00010733      -0.00019492      -1.59506032
H        5.46599021       4.90065494       6.38339958       2.70342401       0.80541787      -0.44886139      -0.00119521       0.00107269       0.00078859       0.00017437       0.00023604       0.00014595      -1.87809028
H        4.19938013       6.40938191       6.79177317       0.38858347      -2.72922198      -0.69304764       0.00074274       0.00152173       0.00056912       0.00019587      -0.00093903       0.00003770      -2.10922347
H        5.27082558       5.19374628       3.92295357      -2.38400828      -0.21360247       0.63920988       0.00195253       0.00078943       0.00053432      -0.00018766      -0.00080694       0.00087671      -1.83065127
H        4.13775537       5.05789349       4.28546069       2.23733190      -1.16548361       2.61912231       0.00150034       0.00100359       0.00228258      -0.00047069      -0.00041047       0.00003484      -2.87431558
H        3.65021355       5.78362523       6.05834722       3.58436149       0.43732475       2.81019967       0.00214659      -0.00029389      -0.00042710      -0.00115192      -0.00046704      -0.00097320      -2.53364264
H        6.41368979       6.14300782       3.51110943      -0.80941340      -1.00960217       1.34927169       0.00049572       0.00050576       0.00058339      -0.00030372      -0.00018871       0.00044404      -1.13553657
H        2.93330254       6.89555777       3.21845041       0.03709956      -0.06432233       0.04033593       0.00002572       0.00006355       0.00002720      -0.00003931       0.00002006      -0.00003421      -0.00851292
H        4.60333418       4.83390277       5.69730227      -5.04158274       2.46848133       1.91340183      -0.00001285      -0.00024886      -0.00333664      -0.00166636       0.00103352      -0.00026622      -3.46971316
H        6.23319952       5.47071420       4.41352934      -0.05436597       1.09134711       0.17293609       0.00067485       0.00095694       0.00057085      -0.00028085      -0.00043642       0.00059576      -1.68401357
H        3.57475385       5.03738037       5.28889487       2.97016697      -4.77109356      -3.75020259       0.00157923       0.00013092       0.00041493      -0.00069944      -0.00037079      -0.00060909      -2.81825863
H        4.99299437       4.52073221       4.76938864       1.62200095      -1.55802215      -4.22066318       0.00120224       0.00029837      -0.00242173      -0.00091468       0.00065460       0.00080283      -2.83293152
H        6.71588815       6.50410815       4.53859232      -0.80577126      -1.32167588      -0.47562229       0.00030714       0.00066422       0.00026492       0.00012890       0.00006389       0.00039884      -1.02900960
H        3.31036915       4.32973097       4.45870820       1.75382327      -0.51597012       0.94156888       0.00106659       0.00012046       0.00055947       0.00005916       0.00041666      -0.00017648      -2.13267802
H        6.80136081       3.09369958       6.41483376      -0.06970857       0.08241366      -0.01416831       0.00005363       0.00007261       0.00000912      -0.00001087       0.00001322      -0.00006063      -0.01447377
H        4.07436792       3.97584459       5.23374812       0.02881247       3.70244170      -3.76673313       0.00115980       0.00186834       0.00191206      -0.00069539      -0.00032964      -0.00020176      -2.73053701
