20
Lattice="10.0 0.0 0.0 0.0 10.0 0.0 0.0 0.0 10.0" Properties=species:S:1:pos:R:3:forces:R:3:stresses:R:6:energies:R:1 energy=-69.45106047573047 stress="0.001662203364805153 -0.0008296265583361891 -0.00012933319927229648 -0.0008296265583361891 0.0022745187975607467 -0.0010354328613644476 -0.00012933319927229648 -0.0010354328613644476 -0.0007557265161704597" free_energy=-69.45106047573047 pbc="F F F"
H        4.96183625       5.96937225       5.44607602      -0.36866626       0.27492795       0.31822560      -0.00057623       0.00042647      -0.00071728      -0.00086158      -0.00082453      -0.00005226      -4.74533378
H        4.64362641       4.83470903       4.07239755      -1.04071765       0.75098709      -1.12276907       0.00150337       0.00041992      -0.00048818       0.00019047      -0.00006773      -0.00046981      -3.22627472
H        4.45208699       5.18212464       6.18769858      -0.36695448       1.27648305       0.48639845       0.00042130       0.00011519      -0.00026235      -0.00142744       0.00055141       0.00047212      -4.20552830
H        3.41599160       5.55323408       6.33973688      -0.17506532      -0.07844802      -0.05442873       0.00086519       0.00034701       0.00032552       0.00057663       0.00034542       0.00029162      -2.69718323
H        5.36886030       5.79148945       6.44060564      -0.08829940      -0.02268675       0.01225819       0.00155826       0.00018062       0.00029068       0.00033839      -0.00057394       0.00002535      -2.74173677
H        5.41914320       4.95242795       5.72034464      -0.30264135      -0.46420358      -0.15873485      -0.00228416      -0.00081835       0.00009327      -0.00056187       0.00027781      -0.00046352      -4.72579133
H        4.32692764       6.26095861       6.32078717       0.25900232      -0.08994880       0.01282655       0.00143618      -0.00002965       0.00038458       0.00028056      -0.00014869       0.00010106      -2.76187817
H        5.43234546       5.38736669       4.63877103       0.51179407      -1.45215128       0.98375790      -0.00105892       0.00049768       0.00093137      -0.00038848       0.00029460       0.00036316      -4.73021260
H        4.45353565       5.88395118       4.44424668      -0.05058213      -0.06706163       0.08251776       0.00066021       0.00040680       0.00060523       0.00012280       0.00010064       0.00011798      -3.38891868
H        3.86985629       5.85482192       5.39498770       0.60538866      -1.08735617      -0.32363683      -0.00131348       0.00085292      -0.00062068      -0.00055799       0.00086799      -0.00043375      -4.61703886
H        6.48700567       5.69175925       4.46850931      -0.25753146      -0.16366477       0.06549231       0.00048779       0.00021192       0.00016411      -0.00011615      -0.00023641       0.00014157      -1.72044096
H        2.84299592       5.46669276       5.34522263       0.04961230       0.05497720       0.14499668       0.00042409      -0.00022077       0.00092394       0.00031166      -0.00006909      -0.00012404      -2.21955059
H        4.52558385       5.02850872       5.12902239       0.42347549      -0.04662251      -0.07230206      -0.00525930      -0.00471666      -0.00629295      -0.00079293      -0.00010348      -0.00053619      -5.62600979
H        6.24431708       4.75053717       5.02589387       0.69459092       0.55636120       0.25850476       0.00016221       0.00072584      -0.00008852       0.00049765       0.00016054       0.00001786      -3.19142652
H        3.60995254       4.71967039       5.60746092       0.07497553       0.38226185      -0.16889543      -0.00059511       0.00138339       0.00079143       0.00036737       0.00009843       0.00031629      -3.70911249
H        5.24715304       4.26818820       4.83944603      -1.02498436       1.13745952      -0.87871834       0.00137158       0.00116947       0.00038710       0.00000003       0.00018168       0.00071921      -3.75100706
H        6.05727150       5.79900464       5.49244849      -0.06635396      -0.15124687      -0.08342591       0.00053831       0.00035298       0.00102233       0.00079170      -0.00003023      -0.00039176      -3.20896995
H        3.60277033       5.15477881       4.55938532       0.82248374      -0.31175923      -0.00934415       0.00124659       0.00052659       0.00108537       0.00029253      -0.00083448      -0.00021024      -3.68745524
H        5.86467187       3.94107087       5.70917640      -0.04021500       0.19133897      -0.20171694       0.00042622       0.00045408       0.00018602      -0.00022255       0.00004816      -0.00011933      -1.75915448
H        4.06583000       4.13931112       4.72529369       0.34068834      -0.68964720       0.70899411       0.00164811      -0.00001092       0.00052327       0.00012377      -0.00016744      -0.00059493      -2.73803697
