20
Lattice="10.0 0.0 0.0 0.0 10.0 0.0 0.0 0.0 10.0" Properties=species:S:1:pos:R:3:forces:R:3:stresses:R:6:energies:R:1 energy=-68.28021538048961 stress="0.0034452383418668714 -0.0024161226615488 0.0025824710406686675 -0.0024161226615488 0.0037937769143698897 -0.002323518941629048 0.0025824710406686675 -0.002323518941629048 0.002894324398374505" free_energy=-68.28021538048961 pbc="F F F"
H        5.02077660       5.92017225       5.44776653       1.26792135      -0.00989377      -1.34296012      -0.00243604      -0.00028596      -0.00117982      -0.00098202      -0.00007100       0.00097393      -4.74163812
H        4.64020804       4.75405476       4.09344548      -2.76260502       0.52768013       0.12149209       0.00145636       0.00140874      -0.00002140      -0.00014207      -0.00050747      -0.00033447      -3.19083486
H        4.41523065       5.22773783       6.18423251       1.95689238       1.36837082       0.75100367       0.00054416      -0.00003290      -0.00020688      -0.00143942       0.00017290       0.00046140      -4.19065196
H        3.47273691       5.78393628       6.34656993      -0.64839338       1.41433860       0.23085391       0.00080172      -0.00034450       0.00045320      -0.00008075       0.00049167       0.00026598      -2.43470029
H        5.41844194       5.72414948       6.45782361       0.31587972       0.54116267      -0.00506301       0.00134954      -0.00049793       0.00047985      -0.00017361      -0.00041527       0.00037509      -2.71366925
H        5.37701167       4.90772066       5.74383577      -2.39232136      -3.47623679      -1.60615550      -0.00179986      -0.00195946      -0.00004142      -0.00091284       0.00057775      -0.00047618      -4.74287082
H        4.48388933       6.31258130       6.30618080      -2.53535616       1.62457664       1.05225947       0.00038385      -0.00049000      -0.00014261       0.00009668       0.00059903       0.00047851      -2.75688731
H        5.42839318       5.30178548       4.64019700       1.99037343      -3.71557014       2.82426253      -0.00126104       0.00058052       0.00100050      -0.00086768      -0.00004998       0.00059001      -4.69954131
H        4.51169962       5.86296666       4.43773404      -1.12064267      -0.59254259      -1.62051568       0.00027477       0.00078668       0.00021902       0.00047662       0.00029121       0.00058790      -3.36084693
H        3.94597079       5.97184457       5.37350516      -3.12202635      -2.59036647      -0.68052929      -0.00092498       0.00139023       0.00039478       0.00047227       0.00146875      -0.00032543      -4.51583921
H        6.50782136       5.46627891       4.46510278       0.35376879       1.07290298      -0.48500979       0.00029259      -0.00029083       0.00008491       0.00028450      -0.00015985      -0.00009156      -1.71828954
H        2.85815227       5.77488319       5.10251824       4.23162923      -1.62517694       1.57043167       0.00222810       0.00074881       0.00151122       0.00005388       0.00049915      -0.00067342      -1.93395160
H        4.47974169       5.01975679       5.13258362       2.85702005       2.40095273       0.96064295      -0.00308324      -0.00359223      -0.00521527      -0.00067885      -0.00001618      -0.00140945      -5.67292346
H        6.19313587       4.60986412       5.07944692       0.27947105       0.07745137      -0.00971008       0.00008297       0.00013905      -0.00045257       0.00059089       0.00063550      -0.00050703      -3.20345524
H        3.50561391       4.97210504       5.60339954      -1.77321970      -1.85626791      -3.47088735      -0.00017356       0.00080965       0.00090245      -0.00005194       0.00000460      -0.00053136      -3.63244298
H        5.17536937       4.18818140       4.90279051      -1.94102584       2.52603262      -0.42562780       0.00149925       0.00182541       0.00037330       0.00002286      -0.00007397       0.00027806      -3.74846075
H        6.08983587       5.67673559       5.48397427       1.22718817       0.33578370      -0.09148297      -0.00012462       0.00010908       0.00120046       0.00075421      -0.00002698      -0.00040344      -3.20173073
H        3.60883181       5.16782038       4.47675283       2.43999881       0.56178907       3.30087795       0.00198330       0.00213422       0.00210366       0.00079981      -0.00028255      -0.00029781      -3.51707718
H        5.76584957       3.86741147       5.79773305      -0.41694434       0.41890960      -0.10285341       0.00040408       0.00059632       0.00018670      -0.00015680       0.00014708      -0.00024423      -1.75975827
H        3.99305112       4.11999159       4.83191832      -0.20760815       0.99610367      -0.97102922       0.00194788       0.00075887       0.00124424      -0.00038926      -0.00070194      -0.00113264      -2.54464556
