20
Lattice="10.0 0.0 0.0 0.0 10.0 0.0 0.0 0.0 10.0" Properties=species:S:1:pos:R:3:forces:R:3:stresses:R:6:energies:R:1 energy=-65.15910941807402 stress="-0.007586556781415677 -0.005411898034121095 -0.011030999676893053 -0.005411898034121095 0.0016225289560252117 -0.014347929453239889 -0.011030999676893053 -0.014347929453239889 -0.01571617858624826" free_energy=-65.15910941807402 pbc="F F F"
H        5.02134511       5.96096288       5.41922118       0.14568260       0.19033641       2.08444840      -0.00015142       0.00068780       0.00115136      -0.00071963      -0.00039610       0.00013154      -4.61224142
H        4.72367346       4.65922192       4.11951224      -5.05186681       2.64310049       0.23216244       0.00138637       0.00145811       0.00026215       0.00057070      -0.00131300      -0.00047141      -3.08255058
H        4.39786933       5.26923173       6.16277441      -1.16607400       2.63858870       2.34325589       0.00017643       0.00040526      -0.00098710      -0.00146549       0.00067473       0.00089385      -4.19078500
H        3.39068660       5.71162012       6.31308522       0.57882212      17.42348299      15.19922409       0.00123501      -0.00513259      -0.00482407      -0.00571115       0.00019664       0.00103728      -1.78850900
H        5.37764148       5.77411574       6.44452388      -1.06001395       0.00561478      -1.13298995       0.00194739       0.00043037       0.00073444       0.00038759      -0.00026058      -0.00023838      -2.75094644
H        5.33494937       4.90659791       5.75457575       1.11673296       1.66694429       1.02892626      -0.00165987      -0.00135337      -0.00098449      -0.00130524       0.00032293      -0.00024388      -4.77537930
H        4.38341686       6.36035252       6.33148997       1.26192246      -2.05759908      -1.17824023       0.00213181       0.00071651       0.00083301       0.00054358      -0.00066292      -0.00019626      -2.64972353
H        5.43493601       5.26914424       4.69206526       0.35918769       0.18340083      -0.95560322      -0.00051958       0.00024861      -0.00003530      -0.00089912       0.00069290      -0.00013211      -4.65583911
H        4.41430794       5.84556073       4.38003989       2.09020290      -1.00820733       0.59968436       0.00306654       0.00112063       0.00098798       0.00097980       0.00056278      -0.00083897      -3.23557575
H        3.94335275       6.01434891       5.37984459      -2.08085037      -3.11726783       0.55362140      -0.00174713       0.00141986       0.00035643      -0.00014583      -0.00025186      -0.00020797      -4.41166976
H        6.50900062       5.49274290       4.50960830      -0.75093047      -1.09022655       0.73913268       0.00063284       0.00063430       0.00037282      -0.00035894      -0.00036745       0.00027356      -1.71645633
H        3.05893040       5.92571556       4.73746337       1.34307729      -1.56634060       1.18633567       0.00116877       0.00062812       0.00107145      -0.00091718      -0.00004852      -0.00055578      -1.80981984
H        4.45939591       5.06865872       5.12083273      12.88927553      -4.11218198       9.53100192      -0.00732099      -0.00251170      -0.00823288       0.00027214      -0.00449010      -0.00164231      -5.32071275
H        6.17729922       4.57050263       5.10321810       2.96579278       2.74154802       1.13996288      -0.00082335       0.00107036       0.00047450       0.00021548      -0.00043583      -0.00036070      -3.16966030
H        3.44887669       5.01794851       5.59311275       3.31269224     -14.84179311     -17.96912946       0.00163817      -0.00360119      -0.00528060      -0.00600702       0.00055866       0.00017275      -2.86889867
H        5.17637925       4.17173718       4.97978581       3.47899531       0.11536109      -0.31519341      -0.00424486       0.00094410      -0.00162629      -0.00041844      -0.00127316      -0.00133570      -3.61007391
H        6.10439994       5.65187928       5.53801060      -1.96645550      -0.77176699      -0.34607036       0.00130154       0.00096605       0.00106744       0.00077626       0.00010551      -0.00035386      -3.19972178
H        3.65659377       5.02182165       4.50801994     -10.39958929      -1.83134905     -11.13280438      -0.00415060       0.00133149      -0.00283632       0.00027553      -0.00420831      -0.00047899      -3.07310332
H        5.75138130       3.89172764       5.90125415      -0.08263207       0.56110422      -0.71740691       0.00046757       0.00058373       0.00047135      -0.00032805       0.00010324      -0.00004503      -1.76641584
H        4.12732557       4.04608699       4.91907282      -6.98397140       2.22725069      -0.89031806      -0.00212119       0.00157608       0.00130793      -0.00009293      -0.00054054      -0.00081954      -2.47102680
