20
Lattice="10.0 0.0 0.0 0.0 10.0 0.0 0.0 0.0 10.0" Properties=species:S:1:pos:R:3:forces:R:3:stresses:R:6:energies:R:1 energy=-69.40291559123524 stress="0.0017445087543478384 -0.0016113849041424222 -0.00020643947842866628 -0.0016113849041424222 0.0025695156796829775 -0.0007572895082375819 -0.00020643947842866628 -0.0007572895082375819 -0.0009848499367192277" free_energy=-69.40291559123524 pbc="F F F"
H        4.97892507       5.96887881       5.41984983       0.09399923       0.03111103       0.13818325      -0.00067206       0.00044388      -0.00045539      -0.00090693      -0.00078721      -0.00016580      -4.73967598
H        4.62765491       4.78866405       4.08130213      -1.68617112       1.27723438      -0.76490299       0.00153951       0.00069377      -0.00035224       0.00028576      -0.00027068      -0.00049831      -3.19108713
H        4.46447510       5.21130948       6.18840330      -0.81892796       1.36852802       0.54021365       0.00019516      -0.00005020      -0.00018736      -0.00150927       0.00057381       0.00046322      -4.19916038
H        3.44311253       5.61871764       6.35078546      -0.11363167       0.08630945      -0.00559164       0.00091567       0.00028945       0.00027229       0.00049178       0.00032294       0.00030680      -2.69992508
H        5.40188429       5.79814076       6.41168564      -0.15551684      -0.08206608      -0.03096510       0.00141496       0.00020856       0.00031858       0.00036946      -0.00048053      -0.00001820      -2.76149349
H        5.40930468       4.93676679       5.71455830       0.67126696       0.17385222       0.16384055      -0.00264249      -0.00074567      -0.00014887      -0.00070525       0.00024424      -0.00029581      -4.71731376
H        4.37593099       6.29496642       6.30021393      -0.09153368       0.03783822      -0.02486838       0.00136918      -0.00008421       0.00038820       0.00030846      -0.00006176       0.00012930      -2.76561685
H        5.42728588       5.34590536       4.62468832       0.70829700      -1.18866979       1.10911388      -0.00112043       0.00056172       0.00097629      -0.00033275       0.00033668       0.00020273      -4.72981171
H        4.45695920       5.86204310       4.42398412      -0.02026850      -0.01438156      -0.05709989       0.00081842       0.00044279       0.00066990       0.00039071       0.00002413       0.00006442      -3.37714484
H        3.88404312       5.88701854       5.38858179       1.07428884      -1.40164762      -0.45979823      -0.00117179       0.00100199      -0.00029054      -0.00051583       0.00080426      -0.00047847      -4.61992123
H        6.48413292       5.63089779       4.43868248      -0.16731172      -0.11069770      -0.08048369       0.00046141       0.00017891       0.00010494      -0.00010510      -0.00021524       0.00011637      -1.72018211
H        2.84455565       5.53151312       5.37255031       0.04361732       0.05096878      -0.00409265       0.00039628      -0.00021375       0.00094059       0.00036315      -0.00009335      -0.00013653      -2.21028345
H        4.51702020       5.03404355       5.13082884      -0.58403490      -0.18460799      -0.15801308      -0.00535671      -0.00501893      -0.00619229      -0.00055207      -0.00013363      -0.00092514      -5.61219730
H        6.23641106       4.71230347       5.02901077      -0.01725738       0.09197292      -0.06768338       0.00052885       0.00065232      -0.00013971       0.00045697       0.00026382       0.00015164      -3.19666551
H        3.59890174       4.77166734       5.63025042      -0.03142265      -0.11470153       0.12117145      -0.00067573       0.00119925       0.00047133       0.00036029       0.00012849       0.00037494      -3.72153134
H        5.21445485       4.23797902       4.86216454      -0.47436754       1.33029403      -0.87094366       0.00168178       0.00115879       0.00009092      -0.00000519      -0.00001475       0.00080604      -3.75782621
H        6.06715859       5.76479016       5.46257627      -0.05981758      -0.08763226       0.06929251       0.00045547       0.00033199       0.00078105       0.00069113       0.00007947      -0.00027910      -3.23698903
H        3.57948671       5.17198579       4.57699847       1.65332140      -0.91017163       0.16061519       0.00163656       0.00093185       0.00109266       0.00038324      -0.00074954      -0.00049760      -3.65003562
H        5.84401215       3.92208623       5.72437377       0.08741642      -0.02139828      -0.02227224       0.00035371       0.00037029       0.00012293      -0.00018549       0.00001979      -0.00008316      -1.75745025
H        4.03605198       4.14030035       4.77602227      -0.11194563      -0.33213459       0.24428447       0.00161677       0.00021672       0.00055187      -0.00004037      -0.00019737      -0.00084872      -2.73860431
