20
Lattice="10.0 0.0 0.0 0.0 10.0 0.0 0.0 0.0 10.0" Properties=species:S:1:pos:R:3:forces:R:3:stresses:R:6:energies:R:1 energy=-22.456848659131207 stress="0.007559365282851423 -0.001509672033117793 -2.837394709133393e-05 -0.001509672033117793 0.003085154294992375 -0.0011152952561850964 -2.837394709133393e-05 -0.0011152952561850964 0.001219348428018446" free_energy=-22.456848659131207 pbc="F F F"
H        5.24226101       6.00989943       6.82566224      -0.52126382       0.51152573       0.26708604       0.00038942       0.00002153      -0.00005980      -0.00007865      -0.00007887      -0.00017000      -2.08762337
H        4.00956779       3.56255772       4.19716375      -2.47756181       0.47734785       1.37694966       0.00168235       0.00116580       0.00071605      -0.00056955      -0.00029763      -0.00024868      -1.17024708
H        4.13710798       5.89035766       6.97833180       0.17210203      -0.60170296      -0.54989101       0.00058023       0.00004697       0.00021037       0.00013690      -0.00013746      -0.00015570      -2.53631764
H        3.31020142       5.23198901       7.36116888       0.48219213       0.67329519      -0.60221422       0.00037393       0.00046229       0.00024856      -0.00016316      -0.00020904       0.00010309      -1.12158984
H        6.30113580       5.76173860       7.10010441      -0.12090643       0.11999875       0.13702549       0.00023312      -0.00003273      -0.00004849      -0.00004315       0.00003001      -0.00000755      -1.04833457
H        5.78347432       5.18398805       6.29672071       0.40077360      -0.25398157      -0.19261357      -0.00022071      -0.00000500      -0.00001581      -0.00006556      -0.00017483      -0.00008557      -1.54087211
H        3.78213066       6.95096857       6.95530953       0.43647136      -0.36887047       0.00987950       0.00031412       0.00034274       0.00003649      -0.00000795      -0.00008583      -0.00019435      -1.13736553
H        5.56283871       5.56392901       3.25729214       0.96492420       1.28409238      -0.28491428       0.00037565      -0.00014998      -0.00009856       0.00032794       0.00020001       0.00016359      -1.02945985
H        3.13014968       4.82895814       4.05796654       1.15672552       0.84474023      -0.29385390       0.00034303      -0.00024030       0.00002487       0.00011437       0.00010393      -0.00059642      -0.65862659
H        3.06266775       6.12661827       6.71828068       0.69929245      -0.62777898       0.18641819       0.00048689       0.00013949       0.00010738      -0.00008015       0.00000959      -0.00023242      -1.54510008
H        7.18027687       6.88018714       3.17902261      -0.32470977      -0.17256352       0.68735090       0.00013686       0.00010126       0.00036050      -0.00001856      -0.00009533       0.00010872      -1.01359247
H        2.89275234       7.13602855       3.12007846       0.00368324      -0.03579441       0.01455142       0.00000044       0.00004129       0.00000682      -0.00001679       0.00000173      -0.00000425      -0.00538541
H        4.68138885       5.27789702       6.19419502      -1.56042078       0.41567093       0.58052805       0.00022248       0.00026640       0.00042428       0.00020973      -0.00033725      -0.00017047      -1.65797066
H        6.47636491       6.12731354       3.62992545      -0.41147222      -0.08838440       0.06500147       0.00043881       0.00041528       0.00017540       0.00013239       0.00013307       0.00039636      -1.52749384
H        3.55735966       3.02749712       6.09552439      -0.60421070       0.68894451       2.13492836      -0.00004086       0.00005767      -0.00096318      -0.00035070       0.00032267       0.00006910      -0.53885634
H        5.26214509       4.68622825       3.86081219      -0.62284169      -0.93964317       0.73281664       0.00046987       0.00001584      -0.00005339       0.00017764      -0.00002443       0.00023710      -0.64077782
H        6.95939235       6.90890697       4.29189646      -0.17400247      -0.45416190      -0.96419558       0.00012115       0.00020111       0.00048063       0.00015214       0.00003224       0.00014140      -1.00778353
H        2.85232581       3.79910590       4.31852800       2.19068023      -2.67010565       0.74900483       0.00141573      -0.00049683       0.00022840      -0.00001973       0.00017691      -0.00074571      -1.09262603
H        6.89304699       2.86866043       6.40974729      -0.01389753       0.02899975      -0.00141567       0.00000771       0.00003357       0.00000008      -0.00000164       0.00000079      -0.00001609      -0.00417806
H        3.81517363       2.80714836       5.05978035       0.32444246       1.16837172      -4.05244231       0.00022912       0.00069875      -0.00056125      -0.00095082       0.00040137      -0.00010184      -1.09264784
