20
Lattice="10.0 0.0 0.0 0.0 10.0 0.0 0.0 0.0 10.0" Properties=species:S:1:pos:R:3:forces:R:3:stresses:R:6:energies:R:1 energy=-65.83024120950222 stress="-0.0059817007106482915 -0.0006504870481562426 0.003326463592956861 -0.0006504870481562426 -0.004091839775968242 0.0015372097872831398 0.003326463592956861 0.0015372097872831398 0.00034706142018628715" free_energy=-65.83024120950222 pbc="F F F"
H        4.95186141       5.90142107       5.48272909       0.19396992       1.37583380       0.63823515       0.00009625      -0.00076964      -0.00174131      -0.00149041       0.00064863       0.00051992      -4.76145842
H        4.61265920       4.68768839       4.13547488       6.24728967      -1.76346131      -2.51442010      -0.00389406      -0.00172181       0.00047319       0.00028627       0.00024307      -0.00115335      -2.97251482
H        4.62402024       5.34402690       6.41077059      -1.59999401       0.26551453      -0.89820425      -0.00028801      -0.00054710       0.00077477      -0.00094100       0.00092471       0.00001516      -3.66918848
H        3.67201550       5.83070593       6.68082455      -0.36650319       0.12800085       0.83663122       0.00021704       0.00019001      -0.00008128       0.00035482      -0.00008910       0.00026231      -1.77404387
H        5.59045736       5.89807467       6.38128281      -0.64131193       0.08403269      -0.65967556       0.00102042       0.00062396       0.00058386       0.00050501      -0.00024879      -0.00041081      -2.73831462
H        5.44352158       4.94153737       5.81065366      -1.48273776      -0.72542674       0.45669947      -0.00177771      -0.00103863      -0.00030776       0.00021305       0.00138676      -0.00009303      -4.70824311
H        4.56330924       6.44415107       6.35187587      -0.33432057      -0.38919142      -0.14566554       0.00136880       0.00017163       0.00025184       0.00032353       0.00053496       0.00003381      -2.66399446
H        5.31023400       5.23390459       4.73431259       1.33015093      -1.99062641       0.47592537      -0.00208714      -0.00209514      -0.00162205      -0.00210646      -0.00096258       0.00007044      -4.68718154
H        4.29209140       5.62882458       4.60420130      -0.33010719       1.98629971       1.05705772      -0.00056415      -0.00045132      -0.00009986       0.00007307      -0.00044669       0.00123030      -4.26084379
H        3.85791353       5.91187689       5.60594291       3.05404329      -0.71531131      -0.64585792       0.00095404       0.00086860       0.00069760       0.00004761       0.00113607      -0.00114244      -4.08414264
H        6.31164512       5.38383145       4.30673635       0.23445621       0.45289468       0.43752527       0.00015660       0.00011614       0.00063610       0.00019055      -0.00016763       0.00005388      -1.74150072
H        3.25695055       5.97708346       4.63563998      -0.19735798      -0.16946526      -0.54856526      -0.00013451       0.00047348       0.00081092       0.00083712       0.00038619      -0.00025383      -2.14376819
H        4.42074631       4.93091889       5.41490135       1.36384030      -0.31248390      -0.35412868      -0.00108904      -0.00088852       0.00010627       0.00063040      -0.00124613      -0.00000842      -5.19858269
H        6.14446972       4.57606849       5.05441566       1.43396270       0.88442246       0.09215768      -0.00024732       0.00086971      -0.00027101       0.00031628       0.00034294      -0.00014732      -3.17610184
H        3.36775814       5.02924891       5.17313438      -1.08428077      -0.03159094       0.24260008       0.00005372      -0.00138597       0.00004326      -0.00007852      -0.00078570       0.00090144      -3.18419864
H        5.11292971       4.17784593       5.02606087      -3.11880712       0.73700843      -1.75542183       0.00095929       0.00069971       0.00051703       0.00011974       0.00058782       0.00013734      -3.74746944
H        6.07717859       5.70432757       5.37112751       0.19289378       0.44038477      -0.62318889       0.00086807       0.00064555       0.00050185       0.00077825      -0.00032345      -0.00081907      -3.19785685
H        3.58132190       4.96268214       4.08502123      -5.61619073       3.59644111      -0.04510444      -0.00216709       0.00026239       0.00035870       0.00083052       0.00004142       0.00032896      -2.63871806
H        5.76963074       3.89033400       5.87024113       0.39685601      -0.05232386       0.04181434       0.00027622       0.00032474       0.00013623      -0.00023433      -0.00014685      -0.00005920      -1.75458555
H        3.93104736       4.17542543       4.77216418       0.32414845      -3.80095189       3.91158617       0.00029689      -0.00043964      -0.00142129       0.00088173       0.00151082      -0.00011655      -2.72753349
