20
Lattice="10.0 0.0 0.0 0.0 10.0 0.0 0.0 0.0 10.0" Properties=species:S:1:pos:R:3:forces:R:3:stresses:R:6:energies:R:1 energy=-29.77578604960885 stress="0.006638559026617993 0.005035623445649715 -0.0031782023618400876 0.005035623445649715 0.002620557203672312 -0.0008122683275451874 -0.0031782023618400876 -0.0008122683275451874 0.008693253865057458" free_energy=-29.77578604960885 pbc="F F F"
H        5.07040103       6.15372896       6.35332203       1.98107062      -1.77906058      -0.84724235      -0.00074584      -0.00075808       0.00043384      -0.00022849       0.00077451       0.00158395      -2.51992525
H        4.31997350       3.77961147       4.06343337      -1.20065412      -2.43874352      -1.12578220       0.00054961      -0.00195652      -0.00039384       0.00037438      -0.00040401      -0.00033552      -1.91493341
H        4.34386846       5.56272181       6.98708070       4.09148139       0.97102346      -3.53114472       0.00163275       0.00083663       0.00132858       0.00036867      -0.00020731      -0.00040226      -2.88002969
H        3.38781270       5.19410460       7.39574914      -0.68495655       0.49791539      -0.83469876      -0.00023340       0.00045188       0.00058081      -0.00026350       0.00000729      -0.00004497      -1.12249975
H        5.74769486       5.92361387       7.24922003      -2.33000009       0.21709860      -1.09344183       0.00148759       0.00007032       0.00045159      -0.00014526       0.00061518       0.00006922      -1.26067170
H        5.54490617       5.16926316       6.45203047      -1.31842077      -1.27829264       0.39091184       0.00112255      -0.00064001       0.00028375       0.00015030      -0.00045796      -0.00004877      -1.80499338
H        4.18829775       6.65998505       6.70375868      -2.18554867       0.63495751       1.73376060      -0.00139113       0.00048939      -0.00002717      -0.00047180       0.00051595       0.00036169      -1.65046726
H        5.37391780       5.30438490       3.47335905      -1.36836992      -1.49050898       1.71295918       0.00080890       0.00081088       0.00080523      -0.00073250      -0.00064364       0.00066676      -1.17400178
H        3.95980447       4.80198947       4.07634892      -2.04525823       3.44264215      -0.23030715      -0.00073001      -0.00119012       0.00048833      -0.00019523      -0.00037930       0.00087409      -1.71033067
H        3.38268456       5.92448969       6.51350874       1.12693594      -2.07834016       0.25311708       0.00094828       0.00035605       0.00060067      -0.00016635      -0.00027820      -0.00059856      -1.74485109
H        6.70711941       6.42732636       3.24914063      -1.21209527      -1.72002435      -0.82836117       0.00037635       0.00039455      -0.00058832      -0.00067959      -0.00042162       0.00038448      -1.02997493
H        2.90948614       7.00802401       3.17178960       0.01179730      -0.02477845       0.01016012       0.00000620       0.00002733       0.00000460      -0.00001121       0.00000534      -0.00001301      -0.00363435
H        4.57745429       5.23506102       5.87957318      -1.06934043       1.66837987       2.50708592       0.00126260       0.00141644       0.00233571       0.00120639      -0.00037578       0.00005723      -1.97376642
H        6.21578854       5.75067322       4.05396943       1.34929247       2.03510607      -0.32654831       0.00061808       0.00116627       0.00051765      -0.00030285      -0.00034816       0.00083046      -1.55138088
H        3.37490660       4.00463752       5.70411435       0.60425390       0.74799407      -1.81476090       0.00043707       0.00057094       0.00144646       0.00009813      -0.00007750       0.00025821      -1.20260118
H        4.99954325       4.59417810       4.35023224       3.30978601       2.35959385       0.10848647      -0.00049462       0.00041181       0.00112040      -0.00064402      -0.00099485       0.00045747      -1.71528773
H        6.82546015       6.71365915       4.29935084      -0.74745325      -0.93261810       1.59329690       0.00032578       0.00065280      -0.00094467      -0.00009631      -0.00000059       0.00045500      -0.97991044
H        3.22883962       4.11220291       4.56011746       1.27759535       0.43029102       0.04331878       0.00101812      -0.00042432       0.00095514       0.00044308      -0.00056988       0.00009300      -1.92326619
H        6.84820521       2.98048550       6.41111097      -0.01749115       0.02937487       0.00054917       0.00001140       0.00003215       0.00000001       0.00000060      -0.00000036      -0.00001914      -0.00454650
H        3.88559707       3.32983695       4.96030109       0.42737546      -1.29201007       2.27864132      -0.00037171      -0.00009784      -0.00070552       0.00048328       0.00006268       0.00040628      -1.60871344
