20
Lattice="10.0 0.0 0.0 0.0 10.0 0.0 0.0 0.0 10.0" Properties=species:S:1:pos:R:3:forces:R:3:stresses:R:6:energies:R:1 energy=-69.228165827937 stress="0.000931591643710466 -0.0017279186660109996 -0.00024081407796844512 -0.0017279186660109996 0.002745162072054094 -0.00260457733188104 -0.00024081407796844512 -0.00260457733188104 0.0003555812759033076" free_energy=-69.228165827937 pbc="F F F"
H        5.02574081       5.95740252       5.39973579      -0.26409257      -0.09502440      -0.00038901      -0.00110861       0.00043822      -0.00010255      -0.00082648      -0.00074901       0.00017549      -4.70589234
H        4.59551789       4.73262540       4.11055695      -1.51186309       0.86037340       0.28157822       0.00150196       0.00103972       0.00011447       0.00003255      -0.00016730      -0.00062453      -3.21952377
H        4.44569659       5.22332701       6.20005115      -0.10912933       2.40762372       0.82024592       0.00110728       0.00049866      -0.00021562      -0.00150952       0.00040816       0.00044364      -4.10395540
H        3.45406164       5.73247137       6.30376586      -0.03307366       0.56487144       0.09796009       0.00102442      -0.00015854       0.00030572       0.00016140       0.00030135       0.00005025      -2.71760287
H        5.41865130       5.79080193       6.40756725       0.01062853       0.17144322      -0.14553434       0.00160647      -0.00011258       0.00045161       0.00014172      -0.00055389       0.00019951      -2.71888866
H        5.39732328       4.93015384       5.73243935      -0.36894349      -0.09626665      -0.30649077      -0.00201224      -0.00146664      -0.00035653      -0.00099997       0.00022437      -0.00028394      -4.74885578
H        4.42863054       6.31932611       6.27009834      -0.06838454       0.13531137      -0.09353640       0.00089562       0.00002800       0.00031185       0.00039937      -0.00008801       0.00001093      -2.79820244
H        5.41796201       5.27259517       4.62782873       1.78384450      -1.71256892       1.35174963      -0.00234407       0.00004291       0.00069602      -0.00019144       0.00036632       0.00041226      -4.72526789
H        4.50839080       5.83860805       4.39379142      -0.77448434       0.16699252      -0.02796641       0.00022187       0.00051163       0.00074745       0.00033566       0.00009614       0.00037070      -3.36748106
H        3.93535437       5.95582750       5.34378191      -0.70768434      -2.16161348       0.03122000      -0.00140797       0.00128009      -0.00002482      -0.00069314       0.00075865      -0.00008897      -4.54938993
H        6.46654234       5.49527212       4.38687277       0.51409976       0.37343542       0.05433416       0.00007904       0.00007306       0.00030288       0.00004072      -0.00020016      -0.00004978      -1.72370010
H        2.86961893       5.67693237       5.30969725       0.80029913      -0.35233242       0.25238979       0.00068621       0.00002061       0.00098883       0.00034198       0.00001168      -0.00032375      -2.21240021
H        4.49664674       5.04147136       5.14851621       1.63645998      -0.29395950      -0.13842202      -0.00530401      -0.00443776      -0.00603893      -0.00054299      -0.00014657      -0.00111955      -5.63326967
H        6.21571303       4.63994654       5.05746273      -0.08398748      -0.53152736      -0.09459992       0.00055880       0.00025862      -0.00026669       0.00039003       0.00026783       0.00013087      -3.20411971
H        3.54736973       4.86061126       5.63120708       0.14013338      -0.28151683      -0.50652058      -0.00031669       0.00104660       0.00011517      -0.00006555       0.00017374       0.00052602      -3.69583717
H        5.17471050       4.19668797       4.93075711      -1.54856115       1.75295830      -1.38610907       0.00215462       0.00127324       0.00032860      -0.00031409       0.00008121       0.00026457      -3.77114165
H        6.09841035       5.70579803       5.42595835       0.00865476       0.12054965       0.37864386       0.00039160       0.00018597       0.00120885       0.00061090      -0.00014974      -0.00014245      -3.20748565
H        3.59525937       5.20515836       4.56428645       0.81602836      -0.99718600       0.04700198       0.00115271       0.00145535       0.00088685       0.00054702      -0.00080924      -0.00058093      -3.65303021
H        5.81082851       3.91167864       5.80742835      -0.09849024      -0.13936005      -0.22931397       0.00037991       0.00027849       0.00025877      -0.00019789       0.00012041      -0.00008998      -1.75793115
H        3.98933287       4.14328219       4.85570789      -0.14145416       0.10779659      -0.38624116       0.00166466       0.00048951       0.00064361      -0.00026486      -0.00018676      -0.00100826      -2.71419016
