20
Lattice="10.0 0.0 0.0 0.0 10.0 0.0 0.0 0.0 10.0" Properties=species:S:1:pos:R:3:forces:R:3:stresses:R:6:energies:R:1 energy=-69.40455857508745 stress="0.0018034979707629666 -0.00152994466963392 -0.00010979761405233617 -0.00152994466963392 0.0024837115886803124 -0.0008473662604391001 -0.00010979761405233617 -0.0008473662604391001 -0.0009753421718217805" free_energy=-69.40455857508745 pbc="F F F"
H        4.97814078       5.96947605       5.42146598       0.06126681      -0.04148883       0.00321919      -0.00069540       0.00047841      -0.00045991      -0.00090086      -0.00076426      -0.00014917      -4.73808531
H        4.62763631       4.78955515       4.08068933      -1.58630041       1.26420336      -0.70360630       0.00158913       0.00071458      -0.00034250       0.00027618      -0.00024223      -0.00047106      -3.19029321
H        4.46432160       5.20972863       6.18813286      -0.88007027       1.35558085       0.49411381       0.00017553      -0.00004506      -0.00016914      -0.00150533       0.00056111       0.00044012      -4.20136391
H        3.44246762       5.61714523       6.35002093      -0.13411623       0.02791909       0.04706235       0.00090784       0.00028860       0.00024666       0.00050590       0.00033132       0.00028837      -2.70063697
H        5.40000711       5.79625661       6.41289555      -0.08618288      -0.03767630       0.02224718       0.00139106       0.00019005       0.00030035       0.00036358      -0.00049452      -0.00003221      -2.76140384
H        5.40958143       4.93639481       5.71439762       0.60265453       0.19550240       0.16149977      -0.00261090      -0.00078841      -0.00016994      -0.00072411       0.00024628      -0.00032040      -4.71713129
H        4.37408962       6.29332965       6.30112773      -0.08187110       0.05045004       0.00961397       0.00135008      -0.00008319       0.00037234       0.00030298      -0.00005136       0.00012275      -2.76625264
H        5.42794702       5.34790663       4.62605925       0.51538469      -1.23132415       0.94713128      -0.00112071       0.00056990       0.00095724      -0.00031943       0.00033915       0.00022520      -4.72990665
H        4.45652157       5.86230432       4.42387890       0.03254786       0.04072295      -0.02123412       0.00083439       0.00041929       0.00068893       0.00040452       0.00004069       0.00006084      -3.37601414
H        3.88385827       5.88529884       5.38874831       1.03883488      -1.28704574      -0.46439013      -0.00122315       0.00096118      -0.00033763      -0.00053417       0.00081464      -0.00046792      -4.61798569
H        6.48407568       5.63469659       4.43898688      -0.18683900      -0.11191551      -0.02080960       0.00046289       0.00018423       0.00013404      -0.00010430      -0.00022559       0.00011563      -1.71979633
H        2.84482167       5.52913126       5.37168067       0.01476246       0.03529877       0.03802073       0.00038489      -0.00020708       0.00092048       0.00035117      -0.00007791      -0.00014306      -2.21207675
H        4.51723585       5.03430366       5.12988110      -0.64122326      -0.30791200       0.03664881      -0.00530054      -0.00501756      -0.00617876      -0.00053432      -0.00011568      -0.00084632      -5.61535418
H        6.23734222       4.71457412       5.02777082       0.00174802       0.08235185      -0.04460216       0.00052706       0.00062632      -0.00013927       0.00047501       0.00024371       0.00016283      -3.19636777
H        3.59936991       4.76907381       5.63041174       0.01689215       0.00323351       0.01389386      -0.00062370       0.00122267       0.00051322       0.00033201       0.00010816       0.00037528      -3.72312833
H        5.21531447       4.23913794       4.86229669      -0.45295272       1.26682048      -0.91712513       0.00171312       0.00114984       0.00010567      -0.00004804       0.00001327       0.00080720      -3.75545913
H        6.06604785       5.76523654       5.46387440       0.05433832      -0.01804938       0.06568618       0.00042757       0.00029990       0.00078922       0.00068601       0.00005077      -0.00030057      -3.23760523
H        3.57926448       5.17221264       4.57675958       1.66963173      -0.99095733       0.14741176       0.00161391       0.00091593       0.00109706       0.00034803      -0.00073816      -0.00049534      -3.65032096
H        5.84854112       3.92397161       5.72354796       0.05107853      -0.05626614      -0.05382874       0.00035720       0.00034969       0.00013853      -0.00018395       0.00004160      -0.00008681      -1.75697326
H        4.03517700       4.14024366       4.77488465      -0.00958411      -0.23944791       0.23904730       0.00164321       0.00025444       0.00055810      -0.00003824      -0.00019080      -0.00081530      -2.73840299
