20
Lattice="10.0 0.0 0.0 0.0 10.0 0.0 0.0 0.0 10.0" Properties=species:S:1:pos:R:3:forces:R:3:stresses:R:6:energies:R:1 energy=-65.44104579436093 stress="-0.007636750087343962 -0.0026043984796964466 -0.0006424882367420395 -0.0026043984796964466 -4.527680737265535e-05 0.0003529606700782824 -0.0006424882367420395 0.0003529606700782824 -0.002246004722276645" free_energy=-65.44104579436093 pbc="F F F"
H        4.93151533       5.91893079       5.48898226       0.07907080       0.32386788      -0.97993138      -0.00038770      -0.00040502      -0.00173180      -0.00140159       0.00008779       0.00015388      -4.73787335
H        4.67055889       4.62676003       4.14431738       6.53745353      -1.28106361      -1.71849056      -0.00458607      -0.00072179       0.00014765       0.00060591      -0.00061199      -0.00084266      -2.88906902
H        4.63302114       5.37134162       6.43709937      -2.39229726       1.29186915       0.35200715      -0.00069707      -0.00053989       0.00040672      -0.00116536       0.00097947       0.00006674      -3.58579662
H        3.65371606       5.82632636       6.67470028      -0.30898739      -0.22396021       0.17107359       0.00016788       0.00016138       0.00025949       0.00040909      -0.00019905       0.00008293      -1.78152144
H        5.57754142       5.94985058       6.35979400      -0.15683267       0.10088779       1.12726143       0.00072905       0.00083398      -0.00029765       0.00054583      -0.00050260      -0.00050635      -2.70464510
H        5.43592490       4.95062614       5.84493568       0.66236082      -0.27751309      -0.69280315      -0.00160859       0.00040454      -0.00026721      -0.00015333       0.00139195       0.00003880      -4.70811817
H        4.51263842       6.46836224       6.34210936       0.71475470      -0.49860268      -0.11295651       0.00130058       0.00029316       0.00016382       0.00032611       0.00044011      -0.00022553      -2.65154662
H        5.30299687       5.21932725       4.76523915       1.31437105      -1.04446206       0.42846425      -0.00230367      -0.00270624      -0.00164098      -0.00206054      -0.00168068      -0.00017145      -4.69776725
H        4.29210267       5.59857151       4.61193210      -0.42757339       1.43937947       0.02712430      -0.00064948       0.00040151      -0.00036100       0.00070927      -0.00090088       0.00046983      -4.35370268
H        3.83715216       5.93247909       5.59312976       2.04250321      -0.89766376      -1.34799053       0.00093831       0.00078231       0.00169986      -0.00007866       0.00123291      -0.00121751      -3.87091188
H        6.31636919       5.37521827       4.33986617      -0.37606487      -0.04525806      -0.06571150       0.00053665       0.00012213       0.00025558      -0.00000501      -0.00021962       0.00015945      -1.75308978
H        3.25450315       5.92985396       4.43675554       1.00871893      -0.46021065       0.83822067       0.00034247       0.00056729       0.00129300       0.00058786       0.00060256      -0.00035251      -1.98515289
H        4.41114836       4.94733897       5.45747932       0.44438323      -1.31465574      -0.22370335      -0.00038161      -0.00099244      -0.00063649       0.00069647      -0.00156908      -0.00045766      -5.12579500
H        6.13839478       4.57029453       5.09101528       1.27776823       1.16101553       0.42503170      -0.00023066       0.00112412      -0.00007111       0.00029424       0.00022756      -0.00014627      -3.16611345
H        3.37731945       5.06394486       5.10572357      -0.43107769       0.16990054       0.41022119       0.00051906      -0.00134081      -0.00020688      -0.00008651      -0.00055096       0.00069104      -3.26480505
H        5.10575049       4.17758840       5.07526312      -3.03084935       0.17838288      -0.35264928       0.00082211       0.00051228       0.00028354       0.00041216       0.00037003      -0.00011496      -3.79946647
H        6.05157579       5.72631296       5.36735114       0.66773622       0.00398509       0.96093085       0.00058559       0.00094561      -0.00044646       0.00013664      -0.00052715      -0.00069624      -3.19100020
H        3.66115079       4.91166073       4.04297571      -8.38857268       3.15216719      -1.73834370      -0.00343028      -0.00024962      -0.00010008       0.00046343      -0.00031284       0.00050511      -2.60692783
H        5.77151500       3.88478798       5.91667573      -0.06997550       1.24927084      -0.44891821       0.00038286       0.00093432       0.00031706      -0.00036265      -0.00007438      -0.00024181      -1.74637001
H        3.95686674       4.18040145       4.81216597       0.83311009      -3.02733648       2.94116302       0.00031384      -0.00017208      -0.00131306       0.00047960       0.00117436       0.00020078      -2.82137299
