20
Lattice="10.0 0.0 0.0 0.0 10.0 0.0 0.0 0.0 10.0" Properties=species:S:1:pos:R:3:forces:R:3:stresses:R:6:energies:R:1 energy=-21.17021333830928 stress="-0.029513679076870688 0.010437557749668081 -0.01186449032281873 0.010437557749668081 -0.044849229562865627 0.013170378166018336 -0.01186449032281873 0.013170378166018336 -0.001125763432679448" free_energy=-21.17021333830928 pbc="F F F"
H        5.13319246       6.14145690       6.55076873      -1.82024305       1.55533868       0.86355259       0.00123765       0.00026314       0.00015649       0.00013839      -0.00027960      -0.00063426      -2.43958561
H        4.42057580       3.76862224       4.05152805     -13.56997233     -27.56354916       1.87552933      -0.00185403      -0.01152067       0.00090771      -0.00052519      -0.00102409      -0.00403717      -1.08565449
H        4.23001040       5.70476569       7.04715775      -0.88480519      -3.15867399      -0.50956224       0.00171432      -0.00039977       0.00101658       0.00024600      -0.00081062       0.00029317      -2.51224492
H        3.22785890       5.20569861       7.52590612       2.20725288       2.54116587      -2.69073669       0.00117413       0.00100391       0.00103272      -0.00088542      -0.00061030       0.00058668      -0.95816455
H        6.07248572       5.85275839       7.10479366      -0.31250945       0.96519222       0.79217292       0.00056178      -0.00025622      -0.00031076      -0.00035494      -0.00002498      -0.00019101      -1.08789134
H        5.67367900       5.18925945       6.32278351      -0.91261490      -0.96985126      -0.96315473       0.00027397      -0.00026377      -0.00023170      -0.00031149      -0.00040167      -0.00028419      -1.59567575
H        4.13927156       6.79007440       6.88646278       0.16553768      -1.88099685      -1.44390330       0.00197073       0.00063626       0.00025821       0.00059854      -0.00021196       0.00005560      -1.42904739
H        5.30295109       5.47839012       3.33682677       0.74241866      -0.65811903       2.32592609       0.00133411       0.00105680       0.00080302      -0.00037646       0.00003823       0.00096781      -1.07540700
H        3.93443043       4.71581642       4.10617329     -33.01314840       8.53818798       1.64157554      -0.01624112      -0.00243999       0.00020338      -0.00023715       0.00093982       0.00233343      -0.86796517
H        3.21932628       6.01442621       6.65694204       2.77002119      -0.23676984       1.78087343       0.00154008       0.00128147       0.00081092      -0.00035813       0.00007941       0.00047962      -1.49360991
H        6.85093353       6.56689515       3.09457059      -1.15417446      -0.78672921       3.68731077       0.00048086       0.00041382       0.00196282      -0.00020021      -0.00038931       0.00043023      -0.90571533
H        2.89607714       7.06529168       3.14911567       0.01964161      -0.02542437       0.00809597       0.00001831       0.00002689       0.00000352      -0.00000916       0.00000484      -0.00001855      -0.00265713
H        4.60257912       5.31284616       6.01753451      -1.29461291       0.83142248       1.63286660       0.00066242       0.00055695       0.00134693       0.00062199      -0.00045030      -0.00023846      -1.74963216
H        6.22817881       5.96146224       3.88927670      -1.33740261      -0.71642485      -2.48012148       0.00102815       0.00039339       0.00075767      -0.00033973      -0.00013861       0.00062552      -1.47602479
H        3.45223546       3.40417434       5.98786647      -0.42594027       1.04746506       2.29725019       0.00004889       0.00020542      -0.00093035      -0.00048840       0.00024931       0.00009828      -0.62197963
H        4.91430376       4.63437950       4.05421805      44.94781752      20.97274411      -2.46898850      -0.01815799      -0.00889010       0.00059336      -0.00059878       0.00047141      -0.00363347      -0.34373395
H        6.88481135       6.74508191       4.31718081       0.40065165       0.24143225      -2.02161275      -0.00011292      -0.00017787       0.00141099       0.00008164      -0.00006489      -0.00015477      -0.91003758
H        3.22948928       3.95065914       4.46407819     -16.72167620      34.56280614     -22.27433149      -0.00226931      -0.01379996      -0.00472827       0.00856562      -0.00455042       0.00637270      -0.37516128
H        6.86923333       2.92755034       6.40980987      -0.01545680       0.02924064      -0.00112513       0.00000924       0.00003307       0.00000005      -0.00000127       0.00000067      -0.00001748      -0.00434482
H        3.61013821       3.20036885       4.93451735      20.20921537     -35.28845687      17.94838287      -0.00293294      -0.01297199      -0.00618906       0.00760453      -0.00469144       0.00740386      -0.23568056
