20
Lattice="10.0 0.0 0.0 0.0 10.0 0.0 0.0 0.0 10.0" Properties=species:S:1:pos:R:3:forces:R:3:stresses:R:6:energies:R:1 energy=-36.981789073510996 stress="0.02186578140964991 0.004333565288156602 -0.0007721109373920314 0.004333565288156602 0.02475398845548578 -0.0033436636683875417 -0.0007721109373920314 -0.0033436636683875417 0.02076474775516877" free_energy=-36.981789073510996 pbc="F F F"
H        5.08007529       5.93461444       5.88787600      -2.08874283      -3.40344569       2.32651505       0.00205385       0.00261251       0.00225765       0.00046976      -0.00013950      -0.00012182      -2.16752260
H        4.31765436       3.89954466       4.13945460       1.09391620       0.60294227      -0.57868204      -0.00091046       0.00085125       0.00021944      -0.00010889      -0.00018886       0.00018423      -2.15879777
H        4.52913881       5.38280964       6.67065812     -10.70849761       4.64820898       3.96249593      -0.00090178      -0.00072603      -0.00134903      -0.00119969       0.00069279       0.00048236      -3.38681727
H        3.41602639       5.33616715       7.10988413       3.84916170       1.98927219      -3.49389063       0.00199987       0.00096162       0.00167655      -0.00048070      -0.00096890       0.00063934      -1.27663051
H        5.19483763       5.99237843       7.30029451      -0.95495806       0.08026857      -2.83635294       0.00088218       0.00076889       0.00165608       0.00023764       0.00021916      -0.00074322      -1.49054625
H        5.46244205       4.91078793       6.46762736       4.39180847       0.96794767      -0.86762478      -0.00208529       0.00138877       0.00086286      -0.00022068       0.00035575       0.00043952      -1.72920631
H        4.23136422       6.48386534       6.81563324       1.57357591      -5.15430287      -1.49925754       0.00198251       0.00229089       0.00134374       0.00054868       0.00001965      -0.00023831      -1.94209003
H        5.30215690       5.16282920       3.84616110      -2.38703606      -0.90039615       2.16718728       0.00227484       0.00103498       0.00106014      -0.00057108      -0.00084931       0.00102103      -1.70565791
H        4.12781793       5.03013925       4.20740357       1.76120465      -2.58552345       3.37058041       0.00256311       0.00153272       0.00248173      -0.00054468      -0.00072105       0.00012270      -2.51312239
H        3.64134606       5.82553317       6.06007858       4.59163853      -0.93657552       3.77407027       0.00257306       0.00104758       0.00165401      -0.00026213       0.00020409      -0.00051892      -2.41071821
H        6.43233380       6.16567389       3.46075393      -1.00031164      -1.69597169       1.99389462       0.00046382       0.00072422       0.00089322      -0.00063370      -0.00029085       0.00048934      -1.09632606
H        2.93002172       6.90874651       3.21223049       0.02708912      -0.05682792       0.03460061       0.00001464       0.00005802       0.00002355      -0.00003458       0.00001515      -0.00002612      -0.00787166
H        4.62261561       4.81969108       5.75765049      -4.66568673      -0.12764952      -5.89722031       0.00216652       0.00228579      -0.00035284      -0.00014925       0.00066757       0.00038088      -3.17324729
H        6.22980828       5.47974786       4.39935637       0.11447911       2.49793418      -1.03439294       0.00101906       0.00171485       0.00104570      -0.00052952      -0.00036893       0.00097392      -1.60390826
H        3.47652495       5.01999331       5.32069857       5.14032587      -4.75188067      -3.43491740       0.00281155       0.00174758       0.00271240       0.00073455      -0.00008710      -0.00079177      -2.29722971
H        4.99402412       4.51685181       4.75159804      -1.43958713       1.69198647       0.34461480       0.00212900       0.00106677       0.00102989      -0.00082798      -0.00072607       0.00048549      -2.74243061
H        6.73991134       6.55562310       4.47122795      -1.13275202      -2.12610577      -0.28005292       0.00036912       0.00114064       0.00014796       0.00010465       0.00003943       0.00060187      -0.98307708
H        3.31055652       4.25416046       4.38169934       0.98298441       2.30425244       3.88913043       0.00033284       0.00090547       0.00162704       0.00037352       0.00103832       0.00059946      -1.97172112
H        6.80913433       3.07807100       6.41465903      -0.06564899       0.07731481      -0.01075189       0.00005128       0.00006889       0.00000873      -0.00000791       0.00001080      -0.00005769      -0.01338101
H        4.04397126       3.87274951       5.23256551       0.91703712       6.87855169      -1.92994601       0.00207605       0.00327858       0.00176592      -0.00024166       0.00030575       0.00041125      -2.31148703
