20
Lattice="10.0 0.0 0.0 0.0 10.0 0.0 0.0 0.0 10.0" Properties=species:S:1:pos:R:3:forces:R:3:stresses:R:6:energies:R:1 energy=-66.9210457179171 stress="0.0012662386178606102 -0.0005871384736417996 0.0008114327988914537 -0.0005871384736417996 -0.0026079779603125886 0.0015385143043091993 0.0008114327988914537 0.0015385143043091993 -0.0018840110828381145" free_energy=-66.9210457179171 pbc="F F F"
H        4.99447799       5.92503531       5.45258013       0.24670981      -0.46619861      -0.14931456      -0.00205859       0.00086700      -0.00073255      -0.00065866       0.00027982       0.00061678      -4.74686997
H        4.55001249       4.69296557       4.17360335      -1.31026144       2.01691846      -1.90504375      -0.00126618       0.00024285      -0.00007921       0.00090953      -0.00055975      -0.00059958      -3.26690262
H        4.57298916       5.27529102       6.29751489      -0.68093684      -1.06669504      -0.02742838      -0.00028056      -0.00101918       0.00025715      -0.00075288       0.00058446       0.00077960      -3.89069925
H        3.62438869       5.72526340       6.64160403       0.07706891       0.09123868       0.15400228       0.00065023       0.00054689       0.00029342       0.00057776       0.00016698       0.00058888      -1.87080554
H        5.55866887       5.80700379       6.38377444      -0.03843147      -0.06462020      -0.02127402       0.00097387       0.00029760       0.00040274       0.00039836      -0.00047427      -0.00012750      -2.76666014
H        5.43009689       4.91279962       5.73452512      -0.64225181      -0.06218616      -0.11015460      -0.00140668      -0.00088038      -0.00060721      -0.00045499       0.00107941      -0.00021838      -4.76068579
H        4.56338362       6.36466472       6.38874842       0.01325330       0.28440752       0.16146472       0.00121270      -0.00025307       0.00044786       0.00016619      -0.00035545       0.00000396      -2.68725413
H        5.33105419       5.25566358       4.67254441      -0.09187263       0.79544631      -0.60512256      -0.00085197      -0.00124028      -0.00081160      -0.00095512      -0.00012848      -0.00062198      -4.75294070
H        4.31211628       5.76720452       4.55874413       0.39166662      -0.05557472      -0.19676814       0.00220710       0.00067094       0.00060133       0.00080446      -0.00020951      -0.00039648      -3.90638604
H        3.93401026       5.88591529       5.60876084      -0.11928192       0.86009048      -0.11873400      -0.00296669      -0.00054725      -0.00187159       0.00044085      -0.00039605      -0.00081952      -4.24138919
H        6.33501592       5.51942710       4.29550722       0.05478403       0.10645008       0.05825391       0.00026940       0.00014505       0.00031425      -0.00002217      -0.00021986       0.00005439      -1.73329756
H        3.20132721       5.95378526       4.81639370      -0.18881985      -0.13896863      -0.22836929       0.00070980       0.00024825      -0.00051241      -0.00092064      -0.00053327      -0.00031536      -2.20152941
H        4.43589219       4.95692425       5.25983045       1.31919945       0.55807719       0.28655543      -0.00104628      -0.00188202      -0.00122875       0.00026956       0.00052135      -0.00020322      -5.59000000
H        6.20518720       4.65715737       4.99454908      -0.57350443      -0.68719004      -0.28084958       0.00082011       0.00026434      -0.00020963       0.00032563       0.00021486       0.00025694      -3.19300748
H        3.36026717       4.97313110       5.42605190      -0.65889492       0.25187724      -0.03760517       0.00017424       0.00096138       0.00155634       0.00008087       0.00008853      -0.00027874      -3.10054337
H        5.15591441       4.18856037       4.93217555       0.00525991      -0.69711054       0.76669523       0.00187730       0.00022516      -0.00056407       0.00049809      -0.00038191       0.00075745      -3.62561100
H        6.07767790       5.71488149       5.36741147       0.53006577       0.48382615       0.44994800       0.00022710       0.00010054       0.00047083       0.00037251      -0.00006878      -0.00014342      -3.25826930
H        3.51045789       5.03071289       4.32527058       1.05647043      -0.36752183       0.09350660       0.00035663      -0.00151482       0.00052762       0.00003189       0.00122950       0.00067017      -3.00023895
H        5.86291467       3.89508761       5.74185522       0.03329671       0.04901442       0.00303783       0.00028666       0.00040965       0.00012819      -0.00017021       0.00003439      -0.00012991      -1.74837542
H        3.87590861       4.12850348       4.83606598       0.57648037      -1.89128079       1.70720005       0.00137806      -0.00025061      -0.00026673       0.00059747      -0.00006053      -0.00046121      -2.57957985
