20
Lattice="10.0 0.0 0.0 0.0 10.0 0.0 0.0 0.0 10.0" Properties=species:S:1:pos:R:3:forces:R:3:stresses:R:6:energies:R:1 energy=-69.39020081375416 stress="0.0024368764832079022 -0.0020824205416337203 -0.0001774110542403819 -0.0020824205416337203 0.0031397175293927534 -0.00032639444129113984 -0.0001774110542403819 -0.00032639444129113984 -0.0005486504832831803" free_energy=-69.39020081375416 pbc="F F F"
H        4.98713571       5.96292465       5.41339959       0.11646598       0.08746876       0.13528390      -0.00068246       0.00039763      -0.00042656      -0.00088499      -0.00077885      -0.00015205      -4.74881163
H        4.61666393       4.77935667       4.08344632      -1.59276734       1.21038125      -0.70801415       0.00147650       0.00064676      -0.00029736       0.00027797      -0.00023590      -0.00059732      -3.18792097
H        4.46970112       5.21894416       6.18810399      -1.18437879       1.52743963       0.73243675       0.00035355      -0.00000800      -0.00026890      -0.00150441       0.00058060       0.00043356      -4.20106570
H        3.45222828       5.64165422       6.35687678       0.17658510      -0.01133872      -0.14222711       0.00100911       0.00032926       0.00030266       0.00048463       0.00024960       0.00025683      -2.70310764
H        5.41167189       5.79992403       6.40626275      -0.07376425      -0.10915293      -0.10032649       0.00138721       0.00021602       0.00034790       0.00037438      -0.00049214      -0.00002199      -2.75998456
H        5.41123513       4.93376686       5.71427157       0.40113920       0.10975687      -0.02420168      -0.00250844      -0.00064467      -0.00006871      -0.00072545       0.00039090      -0.00028156      -4.72592013
H        4.39206143       6.30525878       6.29352971      -0.08167552      -0.00412969      -0.00415952       0.00133147      -0.00004440       0.00036910       0.00030802      -0.00008520       0.00011161      -2.76839514
H        5.42216099       5.33086591       4.61897131       1.25454811      -1.12282839       1.51209700      -0.00121241       0.00047299       0.00105643      -0.00030341       0.00043324       0.00019284      -4.72842832
H        4.45965833       5.85504821       4.42002204      -0.27127463       0.02979702       0.08475586       0.00076586       0.00043430       0.00072176       0.00036164      -0.00000001       0.00012776      -3.37869378
H        3.89164259       5.89605762       5.38824730       1.12888361      -1.64320841      -0.53978471      -0.00119238       0.00106618      -0.00019266      -0.00051410       0.00074402      -0.00049379      -4.62298880
H        6.47759552       5.60910142       4.42737732       0.00773917       0.04004877      -0.23034102       0.00038988       0.00011741       0.00005938      -0.00006961      -0.00019220       0.00008011      -1.72273492
H        2.84594342       5.56234494       5.38620633       0.18708568      -0.18530225      -0.25473754       0.00042709      -0.00015293       0.00098877       0.00039663      -0.00016718      -0.00023159      -2.20395425
H        4.51278751       5.03081772       5.13365010      -0.36147863      -0.17367167      -0.20714304      -0.00510969      -0.00483306      -0.00610048      -0.00060086      -0.00007640      -0.00100524      -5.62105023
H        6.23381518       4.69998068       5.02918574      -0.07364593       0.00416682      -0.16598891       0.00053755       0.00062125      -0.00019657       0.00044628       0.00034107       0.00011832      -3.19567058
H        3.59049363       4.78827586       5.63791804       0.21050299      -0.08293969       0.11805291      -0.00049826       0.00130250       0.00053387       0.00047414       0.00010894       0.00037554      -3.71675836
H        5.20817578       4.23053384       4.86710859      -0.89932072       1.49207222      -1.22326569       0.00172636       0.00112236       0.00003804       0.00002480      -0.00005959       0.00076926      -3.75403373
H        6.07536684       5.75621430       5.45442811      -0.41469967      -0.26331141      -0.03227157       0.00056010       0.00039486       0.00086281       0.00072048       0.00015279      -0.00020165      -3.23178530
H        3.57369686       5.17648281       4.58377752       1.56100616      -0.68758805       0.26085406       0.00173631       0.00100590       0.00112026       0.00049543      -0.00081925      -0.00053268      -3.64179916
H        5.83553346       3.91174392       5.72354107       0.20092898       0.06656523       0.23580980       0.00030827       0.00044651       0.00001166      -0.00014760      -0.00006366      -0.00009364      -1.75583933
H        4.02419399       4.14068117       4.78118678      -0.29187949      -0.28422536       0.55317115       0.00163126       0.00024886       0.00058992       0.00005962      -0.00020817      -0.00093674      -2.72125830
