20
Lattice="10.0 0.0 0.0 0.0 10.0 0.0 0.0 0.0 10.0" Properties=species:S:1:pos:R:3:forces:R:3:stresses:R:6:energies:R:1 energy=38.54699780741183 stress="-0.2884291973175395 0.19354563223348406 -0.021140522513173863 0.19354563223348406 -0.2660961239328445 0.13421216852175064 -0.021140522513173863 0.13421216852175064 -0.18250294460304686" free_energy=38.54699780741183 pbc="F F F"
H        5.89723820       6.66770251       7.01902292       2.97617436       5.96902889       3.76957392      -0.00032512      -0.00237104      -0.00091001      -0.00158316      -0.00072750      -0.00125122      -0.46554286
H        3.85929608       3.22948061       4.12968832       0.02064719      -0.58258559       0.88024350       0.00004032       0.00034164       0.00044967      -0.00033375      -0.00003388       0.00002624      -1.01807890
H        3.68035452       5.80301469       6.58324676     259.93241294     -99.68947179    -130.11777825      -0.09238392      -0.01285762      -0.02335019      -0.01802627       0.04659081       0.03548192       7.00756425
H        2.82632722       4.92290287       7.22012358       1.51359706       3.27539188      -1.40315319       0.00062425       0.00183942       0.00036663      -0.00065767      -0.00045369       0.00067037      -0.74287471
H        7.15720575       5.17439760       7.36819566      -0.30079589       0.17990921      -0.13506794       0.00023145       0.00016228       0.00005123      -0.00003916       0.00010096      -0.00014092      -0.06429064
H        5.49292566       5.84163143       6.50763981       5.63800033      -0.32945619      -0.95306459      -0.00379273      -0.00415486      -0.00130127      -0.00240151      -0.00193756      -0.00381247      -0.80450294
H        3.54959399       6.87261121       6.86402477      15.18097235      20.56305060      -1.99513086      -0.00425588      -0.00815788      -0.00008375       0.00078758       0.00058470      -0.00605206      -0.52424692
H        5.18990923       5.41391870       3.19149092    -245.19771541     389.37230384    -304.39162577      -0.04439464      -0.11232855      -0.06872061       0.08788169      -0.05541071       0.07095130      15.44614881
H        2.56760613       5.05582141       4.05526129       0.39130131      -1.61537607       0.14337489       0.00010245       0.00122211       0.00004139      -0.00012945       0.00002060      -0.00024880      -0.24441560
H        2.95781678       6.07442085       6.94634230    -274.59495351      75.03716492     132.91425500      -0.09800243      -0.02013258      -0.02367035      -0.01711311       0.04763758       0.02927371       7.84798650
H        7.43192255       7.12523221       2.63309486      -0.71980924      -1.61051270       1.04508315       0.00017785       0.00086608       0.00038657      -0.00052995      -0.00024408       0.00038394      -0.28903964
H        2.89950515       7.22317259       3.08331039       0.00314547      -0.05518248       0.02157074       0.00001304       0.00005834       0.00001027      -0.00002329      -0.00000294      -0.00000156      -0.00818928
H        4.65440991       5.28892249       6.24596250     -10.29911716      -5.06916458      -2.19270309      -0.00285613      -0.00124930      -0.00018336      -0.00057587      -0.00145130      -0.00279208      -0.90980063
H        6.96504054       6.05627071       3.29597569       0.26403290       1.41351345      -0.87406510       0.00052167       0.00103029       0.00041601      -0.00050003      -0.00024828       0.00057611      -0.37790699
H        3.57566365       2.72536421       6.47571674       0.20032152      -0.09110675      -1.29932198       0.00003902       0.00009233       0.00098461       0.00011209      -0.00015470      -0.00003040      -0.19106618
H        5.55394186       4.83649221       3.64303172     245.56942079    -389.15116135     304.39648788      -0.04449918      -0.11225995      -0.06869522       0.08785496      -0.05545913       0.07100341      15.44243210
H        7.06923481       7.32607483       5.02956169      -0.04034419      -0.09898179      -0.07678008       0.00002960       0.00005813       0.00018697       0.00003526      -0.00004133       0.00002348      -0.03514968
H        2.83379301       3.67951584       4.18525723      -0.09878075       1.30016399       0.10560366       0.00014179       0.00127075       0.00013622      -0.00024710       0.00014305      -0.00035324      -0.78913865
H        6.90889312       2.78717133       6.39697913       0.00293117       0.02817966       0.01146458       0.00000036       0.00003364       0.00000557       0.00001368       0.00000142       0.00000350      -0.00387679
H        3.82108344       2.52585943       5.03358461      -0.44144125       1.15429288       0.15103352       0.00015903       0.00044066       0.00137668      -0.00031277      -0.00005455      -0.00016560      -0.72901346
