20
Lattice="10.0 0.0 0.0 0.0 10.0 0.0 0.0 0.0 10.0" Properties=species:S:1:pos:R:3:forces:R:3:stresses:R:6:energies:R:1 energy=-69.60334017339862 stress="9.071936363304072e-05 -2.7568740767835812e-05 7.784247291150675e-06 -2.7568740767835812e-05 4.196577113282869e-05 9.861952015032587e-06 7.784247291150675e-06 9.861952015032587e-06 -1.1459826818341893e-06" free_energy=-69.60334017339862 pbc="F F F"
H        4.85449791       5.98098183       5.50026539       0.00504260      -0.01415611      -0.01867216      -0.00075494       0.00060439      -0.00094111      -0.00078788      -0.00077669      -0.00031280      -4.75544774
H        4.62696443       4.92442979       4.03961114      -0.00631595       0.01004813      -0.01643673       0.00142867       0.00040907       0.00003858       0.00010905       0.00005711       0.00025842      -3.25983082
H        4.48435709       5.10046448       6.19094954      -0.03377946       0.06575312       0.01415152       0.00017395      -0.00016909      -0.00031651      -0.00128354       0.00052787       0.00039102      -4.25221857
H        3.40775855       5.28440723       6.39081542      -0.01802010      -0.03606105       0.00287488       0.00079687       0.00052918       0.00034698       0.00068308       0.00028522       0.00042474      -2.67930645
H        5.31560039       5.79723482       6.46849695       0.00439484       0.00332544       0.00197285       0.00145210       0.00020948       0.00036961       0.00035445      -0.00067497       0.00003823      -2.74249317
H        5.46481426       5.01385702       5.68981908       0.00056339      -0.02818360      -0.02090474      -0.00203025      -0.00036917       0.00047689      -0.00027730       0.00003012      -0.00069537      -4.70648547
H        4.20681394       6.13315852       6.39745711       0.02515039       0.01282822       0.00500397       0.00160048      -0.00010126       0.00047711       0.00019355      -0.00006800       0.00046154      -2.73250597
H        5.38383575       5.52619524       4.64421817      -0.01311293       0.04086747      -0.00922196      -0.00090744      -0.00021346       0.00106302       0.00002954       0.00077987      -0.00005624      -4.73677430
H        4.33362376       5.89355694       4.51003876       0.00528114      -0.01428567      -0.01721607       0.00080268       0.00035781       0.00031637      -0.00006566       0.00021101       0.00024976      -3.39331882
H        3.79621235       5.69400728       5.45947932       0.03516883      -0.04811207       0.00146501      -0.00153419       0.00032959      -0.00094036      -0.00014545       0.00108410      -0.00065119      -4.64840244
H        6.36506008       6.01102654       4.47687417      -0.02242460      -0.01264662       0.00267808       0.00032827       0.00022489       0.00015293      -0.00011293      -0.00019996       0.00013165      -1.72286717
H        2.83600320       5.16616967       5.40013852      -0.00834577      -0.00757090      -0.01504634       0.00040566      -0.00028323       0.00099961       0.00023089      -0.00017156      -0.00003249      -2.21711302
H        4.56086875       5.00702858       5.12126860       0.04493059       0.02817193       0.02036763      -0.00613100      -0.00515008      -0.00616880      -0.00081291      -0.00011439      -0.00058650      -5.59414244
H        6.30240658       5.01248973       4.97796861      -0.03099829      -0.00357106      -0.00396542       0.00048666       0.00050282      -0.00004185       0.00055387       0.00014141       0.00011047      -3.19436129
H        3.71786305       4.53657549       5.60150976      -0.02095475       0.00366885      -0.01598440      -0.00064694       0.00125458       0.00084307       0.00055554      -0.00003658      -0.00006981      -3.72157313
H        5.37137975       4.41405752       4.71405982       0.01822118      -0.01325618       0.02021916       0.00103410       0.00056550       0.00056417       0.00041125       0.00028124       0.00098459      -3.76868748
H        5.96094320       5.96598009       5.51623495      -0.00623375      -0.00929640       0.01805729       0.00053215       0.00005150       0.00100769       0.00061334      -0.00010121      -0.00018346      -3.23651401
H        3.61726725       5.01530680       4.58263536       0.02907554       0.02312898       0.03439288       0.00082483       0.00079606       0.00096140       0.00013263      -0.00084620       0.00001437      -3.71828289
H        6.03369765       4.07863251       5.54159402       0.00574176       0.00718507      -0.01154105       0.00045335       0.00039376       0.00004347      -0.00015421       0.00004370      -0.00011181      -1.77006822
H        4.25179369       4.07441752       4.68407587      -0.01338467      -0.00783755       0.00780560       0.00177572       0.00009963       0.00074658      -0.00021746      -0.00044432      -0.00039270      -2.75294678
