20
Lattice="10.0 0.0 0.0 0.0 10.0 0.0 0.0 0.0 10.0" Properties=species:S:1:pos:R:3:forces:R:3:stresses:R:6:energies:R:1 energy=-66.62430394706824 stress="0.0004896757585919577 -0.0009097428437597652 0.0013807833042538565 -0.0009097428437597652 0.0030483149590683476 0.0030376149865208955 0.0013807833042538565 0.0030376149865208955 0.0011640766937037195" free_energy=-66.62430394706824 pbc="F F F"
H        4.97712004       5.91047686       5.48273085      -0.58113864      -0.55674113      -1.37394699      -0.00081728       0.00028842      -0.00249170      -0.00097733       0.00006270       0.00077401      -4.76401121
H        4.56648825       4.71187710       4.14531260       0.37854271       0.94602455      -0.82231662      -0.00214870      -0.00022846       0.00084248       0.00078471      -0.00047939      -0.00110979      -3.20275802
H        4.59239330       5.28312437       6.33638045      -0.76190153       0.34017615      -0.68060195      -0.00004931       0.00000522       0.00070534      -0.00036646       0.00062753       0.00048159      -3.86026126
H        3.70921998       5.81581032       6.74270461      -0.39558227      -0.13076222       0.39429727       0.00023022       0.00010590       0.00020164       0.00029532       0.00000774       0.00012689      -1.76922458
H        5.58041300       5.82318832       6.38604913       0.04350420      -0.12599325       0.57324347       0.00088973       0.00033568       0.00014604       0.00038823      -0.00059862      -0.00007144      -2.75222313
H        5.44072705       4.91985068       5.75116682      -1.85817006      -1.48407946      -1.06302460      -0.00071428      -0.00074466      -0.00012805       0.00015069       0.00127030      -0.00007380      -4.75540932
H        4.59584328       6.39981939       6.38198421      -0.38587988      -0.52054766       0.27363654       0.00075803       0.00045779       0.00002329       0.00022407       0.00054448      -0.00000450      -2.69321782
H        5.30907243       5.25357920       4.69524021       0.52469938      -0.56716840       1.16455402      -0.00249836      -0.00126870      -0.00144600      -0.00129528      -0.00033288      -0.00025471      -4.72456825
H        4.31950302       5.74624416       4.60192411      -0.82619816       0.65351710      -0.61677978       0.00042058       0.00033885       0.00053423       0.00073493      -0.00072637       0.00008472      -3.99315910
H        3.89579984       5.85697514       5.65806664       2.57550760      -0.71387258       0.20481534      -0.00034534       0.00054518      -0.00029950       0.00069760      -0.00036383      -0.00033864      -4.25989461
H        6.28421324       5.46338274       4.26116956       1.12638575       1.01636177       0.45040691      -0.00030710       0.00001764       0.00082671       0.00035034      -0.00002296      -0.00009727      -1.72027631
H        3.23969479       5.96824193       4.79642087      -0.58441083      -0.64069428      -0.88357929       0.00027075       0.00059372      -0.00049686      -0.00026291      -0.00028442      -0.00033121      -2.25255078
H        4.42066241       4.92937460       5.29884025       2.41590426       2.00467987       0.99771556      -0.00027536      -0.00143089       0.00054204       0.00045843       0.00019444      -0.00010781      -5.48369788
H        6.17023173       4.62334301       4.97776402      -0.51699144       0.04291226       0.78200154       0.00071155       0.00078056      -0.00015802       0.00065530       0.00012434       0.00020149      -3.17887705
H        3.32689293       4.96321181       5.31815508       0.44257581       0.55713537       0.09152623       0.00058584       0.00094313       0.00055456       0.00008417      -0.00022646       0.00020719      -3.00640746
H        5.12353773       4.16828422       4.94009782      -0.27256208       1.48845577       0.23331865       0.00193064       0.00110098       0.00028084       0.00044674       0.00024601       0.00081728      -3.68449273
H        6.07556099       5.72213325       5.36350959       0.04218764      -0.89757760      -1.52152005       0.00073480       0.00084367       0.00126074       0.00083015      -0.00021581      -0.00033649      -3.22219707
H        3.53620717       5.05311685       4.23699907      -0.73517075      -0.25986781       0.78668085      -0.00045008      -0.00026951       0.00055596      -0.00014167       0.00113679       0.00019044      -2.90601041
H        5.82903779       3.88435665       5.75413359       0.04363441       0.19110973      -0.15101819       0.00032346       0.00045012       0.00019015      -0.00023271       0.00000986      -0.00013470      -1.75241916
H        3.89914263       4.13358711       4.77886140      -0.67493611      -1.34306817       1.16059109       0.00123988       0.00018370      -0.00047979       0.00021328       0.00040733      -0.00093298      -2.64264779
