20
Lattice="10.0 0.0 0.0 0.0 10.0 0.0 0.0 0.0 10.0" Properties=species:S:1:pos:R:3:forces:R:3:stresses:R:6:energies:R:1 energy=-69.59481345534519 stress="0.000952194817190552 -0.00026590255686245626 -0.00013755271620945666 -0.00026590255686245626 0.0008953564364814248 -0.000201602902970517 -0.00013755271620945666 -0.000201602902970517 0.00046759574057510326" free_energy=-69.59481345534519 pbc="F F F"
H        4.88991426       5.97749085       5.48035389      -0.08852236       0.03260774       0.12677136      -0.00083876       0.00057804      -0.00086846      -0.00082361      -0.00080895      -0.00023870      -4.75193826
H        4.62591687       4.89186516       4.04800976      -0.24502025      -0.10267295       0.26554328       0.00153657       0.00049666       0.00013035       0.00004306       0.00001469       0.00011755      -3.25771917
H        4.47177319       5.12870501       6.19246798      -0.09234705       0.46300361      -0.03898420       0.00045873      -0.00005405      -0.00020586      -0.00130766       0.00046202       0.00037667      -4.24281715
H        3.40317374       5.37668175       6.37767869       0.16317229       0.04662002      -0.12645059       0.00093088       0.00050227       0.00037740       0.00062334       0.00028475       0.00041409      -2.68170204
H        5.33404680       5.79637147       6.45748953      -0.01611613      -0.03359730      -0.02321836       0.00146404       0.00022151       0.00035257       0.00036541      -0.00063497       0.00002602      -2.74540662
H        5.45246426       4.99044653       5.69925345      -0.25189262      -0.07019028       0.00579013      -0.00193757      -0.00043286       0.00041908      -0.00032874       0.00002130      -0.00063317      -4.71754947
H        4.24704627       6.18132537       6.37164489       0.00993942      -0.13395704      -0.02543371       0.00159890      -0.00004489       0.00045875       0.00023041      -0.00009513       0.00036458      -2.73928828
H        5.39922884       5.47468285       4.64029341       0.21318960      -0.17740213       0.14833168      -0.00111167      -0.00011834       0.00102829       0.00001003       0.00074712       0.00001289      -4.73763769
H        4.37216911       5.88906840       4.48809051      -0.04085432      -0.00685348      -0.01191560       0.00073409       0.00034351       0.00038075      -0.00004420       0.00017495       0.00021091      -3.39464799
H        3.81833922       5.74840730       5.44014444       0.23374592      -0.56677041      -0.09607824      -0.00151097       0.00055925      -0.00075129      -0.00024354       0.00101690      -0.00062516      -4.64410705
H        6.39799233       5.91613744       4.46448353       0.03358130       0.00216205       0.02746219       0.00031286       0.00021080       0.00017223      -0.00010980      -0.00020789       0.00010207      -1.72364467
H        2.83241563       5.27025501       5.38423180       0.01338042      -0.02426886      -0.02376414       0.00040889      -0.00026966       0.00100559       0.00027109      -0.00016713      -0.00008270      -2.21501832
H        4.54923935       5.00979553       5.12619180       0.01565647       0.15430818       0.07162070      -0.00596650      -0.00501925      -0.00604290      -0.00077762      -0.00014438      -0.00063710      -5.60360041
H        6.29405064       4.93450882       4.99264659      -0.09880371      -0.07058336      -0.03304780       0.00053978       0.00048491      -0.00006720       0.00054668       0.00015070       0.00016439      -3.19387110
H        3.67639001       4.59775958       5.60767881       0.07436154       0.04713031       0.10283401      -0.00063239       0.00129046       0.00073047       0.00053150       0.00001087       0.00007851      -3.72039288
H        5.33571173       4.36313716       4.75219539      -0.14628904       0.32075179      -0.21012350       0.00133507       0.00069060       0.00054063       0.00029968       0.00032972       0.00094513      -3.76637018
H        5.99335905       5.91322293       5.50496082       0.01492343       0.03505133      -0.02698228       0.00048595       0.00006687       0.00102792       0.00064155      -0.00005460      -0.00019824      -3.23392297
H        3.61201625       5.05472604       4.57825149       0.10926085      -0.05206219       0.00770784       0.00090669       0.00080926       0.00096188       0.00024623      -0.00087714      -0.00007771      -3.71404274
H        5.99247055       4.03308255       5.58833396      -0.03820135      -0.02663998      -0.02752249       0.00042976       0.00037232       0.00007233      -0.00015481       0.00006532      -0.00012600      -1.76592754
H        4.19404354       4.08230788       4.71310992       0.13683560       0.16336294      -0.11254028       0.00180784       0.00020793       0.00074506      -0.00022060      -0.00042571      -0.00045992      -2.74520894
