20
Lattice="10.0 0.0 0.0 0.0 10.0 0.0 0.0 0.0 10.0" Properties=species:S:1:pos:R:3:forces:R:3:stresses:R:6:energies:R:1 energy=-66.30067153383894 stress="-0.004627006168556961 -0.0009189575813776783 0.003720849122635943 -0.0009189575813776783 -0.0023432709183618455 0.0030927377389805837 0.003720849122635943 0.0030927377389805837 0.0035975874427184693" free_energy=-66.30067153383894 pbc="F F F"
H        4.97162850       5.92164556       5.46692678       0.86398898      -0.67765596       0.96256384      -0.00012894       0.00043575      -0.00134284      -0.00130914       0.00066800       0.00067551      -4.75937533
H        4.57484038       4.70944690       4.15340790       2.85505832       0.12300330      -2.47452721      -0.00311204      -0.00141782       0.00052181       0.00070948      -0.00006989      -0.00149380      -3.14203150
H        4.60196582       5.30195372       6.35144277      -2.08523425       0.12239677       0.57106038      -0.00022138      -0.00081723       0.00028872      -0.00083303       0.00049708       0.00025601      -3.81232445
H        3.68921243       5.82294981       6.73837948       0.18283911      -0.45365137       0.75984122       0.00051052       0.00021541      -0.00010112       0.00037479      -0.00006665      -0.00002316      -1.75453108
H        5.57400595       5.85200097       6.39590101       0.24327435      -0.15732648      -1.36586886       0.00080903       0.00023950       0.00103225       0.00039306      -0.00031481      -0.00012406      -2.75802519
H        5.44515957       4.93731210       5.77355498      -1.99123471      -1.59024356      -0.59019093      -0.00171562      -0.00123351      -0.00042281       0.00021701       0.00160243      -0.00019230      -4.70534742
H        4.58527948       6.39833619       6.37908215       0.01265503       1.46355840       0.62695657       0.00037676      -0.00049826      -0.00004351       0.00012739       0.00016075      -0.00009382      -2.70121328
H        5.31104526       5.24665570       4.70763730       0.19493344      -0.22414539       0.95123859      -0.00274733      -0.00178090      -0.00165803      -0.00160167      -0.00060757       0.00003231      -4.69343525
H        4.30245519       5.69916628       4.59220270      -0.57571968       0.80277416       1.17119453       0.00031094       0.00006740       0.00097581       0.00038007      -0.00048740       0.00074383      -4.09591679
H        3.90002427       5.87459353       5.66611515       0.42406747      -1.12362913      -3.61707924      -0.00019400       0.00044846       0.00038862       0.00030373       0.00022798      -0.00096415      -4.22833747
H        6.27938702       5.42670874       4.24084201       0.77185857       0.59354479       1.45194670      -0.00018448       0.00025467       0.00129895       0.00026277      -0.00009502      -0.00003425      -1.70114706
H        3.24669484       5.97174748       4.74608771       0.34946617      -0.63592188      -0.15291686       0.00025294       0.00054651       0.00064757       0.00051884       0.00043640      -0.00040167      -2.22924898
H        4.43029957       4.92723763       5.33916280       1.45361063       2.19506069      -0.59982628      -0.00149480      -0.00116833       0.00003344       0.00022624      -0.00022310       0.00059712      -5.35969198
H        6.15108918       4.61083042       4.99720190       1.21418564       0.03655797       0.02316797       0.00005131       0.00051678      -0.00028120       0.00052557       0.00013109       0.00037558      -3.18957533
H        3.35339180       5.00240595       5.26303269      -0.45577568      -1.14640073       0.49579797       0.00006739       0.00000102       0.00017218       0.00030905      -0.00061516       0.00034261      -3.07592985
H        5.11210417       4.17216114       4.97711214       0.46216909       0.13440991      -0.35982108       0.00142627       0.00068294       0.00054310       0.00006800       0.00077177       0.00095162      -3.70977858
H        6.08642078       5.70665998       5.36671823      -0.13918123       0.43784637      -1.83730592       0.00098285       0.00042989       0.00170707       0.00110618      -0.00030663      -0.00076813      -3.17721148
H        3.53297320       5.00183619       4.17658012      -2.15295803       2.47944253       0.81516064      -0.00083035       0.00049265       0.00041713       0.00055182       0.00077641       0.00030337      -2.78144800
H        5.82563219       3.90735704       5.80451403      -0.25361994      -0.40696693      -0.36207611       0.00041446       0.00011572       0.00029967      -0.00020682       0.00020265      -0.00012176      -1.75785292
H        3.91815202       4.13897239       4.77160905      -1.37438328      -1.97265345       3.53068409       0.00079944       0.00012606      -0.00087922       0.00096941       0.00103250      -0.00097980      -2.66824963
