20
Lattice="10.0 0.0 0.0 0.0 10.0 0.0 0.0 0.0 10.0" Properties=species:S:1:pos:R:3:forces:R:3:stresses:R:6:energies:R:1 energy=-69.44729600801561 stress="0.0017154758345511152 -0.0009440020063507038 -8.313519742695763e-05 -0.0009440020063507038 0.0022936828496068758 -0.0008069654136885922 -8.313519742695763e-05 -0.0008069654136885922 -0.0010522171293638057" free_energy=-69.44729600801561 pbc="F F F"
H        4.96299311       5.96800330       5.44612641      -0.33589251       0.32656971       0.25335289      -0.00060917       0.00040408      -0.00069685      -0.00085080      -0.00080758      -0.00004523      -4.74707925
H        4.64197323       4.83181929       4.07203672      -0.98552981       0.89788199      -1.10675386       0.00154494       0.00046814      -0.00050177       0.00022237      -0.00005056      -0.00046068      -3.22130258
H        4.45170486       5.18312071       6.18641249      -0.26971670       1.23003332       0.49727599       0.00040926       0.00007750      -0.00027298      -0.00142954       0.00052452       0.00045648      -4.21056900
H        3.41779959       5.55864868       6.34108630      -0.21697149      -0.20789396      -0.04742658       0.00082084       0.00036681       0.00031186       0.00061265       0.00034189       0.00027259      -2.69799573
H        5.37044045       5.78863282       6.44020357      -0.08191066       0.01081618       0.03676948       0.00155448       0.00017100       0.00028278       0.00032975      -0.00057468       0.00001894      -2.74210550
H        5.41860569       4.95106454       5.71859005      -0.19017931      -0.44469312      -0.08438890      -0.00225511      -0.00081262       0.00005407      -0.00058688       0.00023118      -0.00045271      -4.72925852
H        4.32993443       6.26178022       6.32151363       0.29857141      -0.03040761       0.00692549       0.00141961      -0.00005911       0.00038889       0.00027873      -0.00014554       0.00008218      -2.76219442
H        5.43227514       5.38660270       4.63808959       0.42607552      -1.47500487       0.90074867      -0.00098993       0.00051975       0.00094523      -0.00037266       0.00034034       0.00037391      -4.73048989
H        4.45199002       5.88272558       4.44390040       0.10750539      -0.05349140       0.02302543       0.00067642       0.00040792       0.00060187       0.00016415       0.00013439       0.00009028      -3.38768874
H        3.87163589       5.85654487       5.39567455       0.51050881      -1.15701396      -0.36572628      -0.00134348       0.00088096      -0.00065831      -0.00053220       0.00088830      -0.00043906      -4.61893281
H        6.48752890       5.69008183       4.46915457      -0.22126197      -0.11801474      -0.03414085       0.00048334       0.00018582       0.00011997      -0.00010506      -0.00021963       0.00013779      -1.72029876
H        2.84321408       5.47110122       5.34926427       0.06798426       0.06451993       0.08966417       0.00043532      -0.00021907       0.00091175       0.00031496      -0.00008376      -0.00011929      -2.22049325
H        4.52517284       5.02819514       5.12781294       0.28666004      -0.04176870       0.00792985      -0.00524899      -0.00473233      -0.00632832      -0.00077264      -0.00010254      -0.00055230      -5.62337434
H        6.24432555       4.74891954       5.02416712       0.66746769       0.54480711       0.31602399       0.00016268       0.00070241      -0.00008789       0.00051963       0.00015522      -0.00000194      -3.19108774
H        3.60931385       4.72202270       5.60771952       0.00876697       0.43933895      -0.04366437      -0.00061285       0.00140710       0.00077405       0.00040141       0.00008226       0.00030852      -3.71026096
H        5.24686538       4.26762000       4.83920063      -1.10592284       1.07542222      -0.97436522       0.00136796       0.00114182       0.00033586      -0.00001260       0.00015820       0.00071922      -3.74771564
H        6.05861152       5.79755294       5.49213652      -0.16747409      -0.23067152      -0.02678173       0.00055528       0.00038799       0.00100019       0.00078666      -0.00001267      -0.00036917      -3.20872132
H        3.60011065       5.15636631       4.56085529       0.87680316      -0.33743302       0.01269496       0.00127887       0.00053861       0.00109034       0.00031923      -0.00082399      -0.00024027      -3.68456114
H        5.86486601       3.93945661       5.70721943      -0.01976386       0.19951443      -0.15720173       0.00040717       0.00046280       0.00016575      -0.00021448       0.00003956      -0.00011584      -1.75880635
H        4.06240039       4.13971876       4.72634693       0.34427997      -0.69251093       0.69603860       0.00165883      -0.00000589       0.00051131       0.00012035      -0.00015802      -0.00060742      -2.73436006
