20
Lattice="10.0 0.0 0.0 0.0 10.0 0.0 0.0 0.0 10.0" Properties=species:S:1:pos:R:3:forces:R:3:stresses:R:6:energies:R:1 energy=-62.65216589568999 stress="-0.004724489871353882 -0.0033062171036477186 -0.00124343143905318 -0.0033062171036477186 -0.00032285482515478496 0.004464831198423061 -0.00124343143905318 0.004464831198423061 0.0013431624881237992" free_energy=-62.65216589568999 pbc="F F F"
H        4.91975935       6.01624362       5.49130717      -1.40587989       1.09062389       2.98229349       0.00064671       0.00029810       0.00120401      -0.00078112      -0.00037842      -0.00039533      -4.27926997
H        4.66900729       4.42632519       4.16166083       5.36584830       0.74606815      -2.74823514      -0.00141387      -0.00033631      -0.00085430       0.00136888       0.00039803       0.00110358      -2.77054851
H        4.60463381       5.37581153       6.46225659       1.18110874       0.08489384      -1.72949676      -0.00101423      -0.00050138       0.00052057      -0.00146102       0.00056955       0.00021302      -3.59854135
H        3.63159307       5.70976057       6.81083271      -0.95402096       1.45415283      -0.39420527      -0.00034641       0.00031919       0.00065402      -0.00003890      -0.00007333       0.00073171      -1.68453723
H        5.51054599       6.01327109       6.40777851       0.61610621      -0.60145344      -0.63633396       0.00089150       0.00073165       0.00060038       0.00079779      -0.00079797      -0.00039306      -2.72396214
H        5.45329480       5.02377311       5.85478543       1.17512521       0.49473820       2.41271922      -0.00022125       0.00080972      -0.00100511      -0.00020009       0.00015964      -0.00132582      -4.66124603
H        4.44943129       6.46279360       6.50521121       1.27980209      -1.35902277      -2.26027336       0.00149594       0.00026932       0.00143075       0.00070276      -0.00076026      -0.00016199      -2.56278003
H        5.29834210       5.28367574       4.79952908      -4.65364101       0.35814055      -6.14591757      -0.00301979      -0.00352103      -0.00201739       0.00080518       0.00082059       0.00033576      -4.54837056
H        4.27527749       5.39975120       4.41832598       0.62039239       2.36497541       2.15671647      -0.00123184       0.00001770       0.00076679       0.00023483       0.00037536       0.00107029      -3.84972808
H        3.84023622       5.92434352       5.73113161       0.50780102      -1.13680337      -0.41620137       0.00082525       0.00035648       0.00184777       0.00020152       0.00068591      -0.00019611      -3.39462492
H        6.23832448       5.48707969       4.31551268       2.24154479       1.72447045      -1.17192678      -0.00075803      -0.00017253       0.00022897       0.00061056       0.00034435      -0.00015280      -1.71509229
H        3.32387206       5.80390349       4.04726971      -0.15936264      -3.16513284       1.81726833      -0.00019525       0.00194279       0.00129930      -0.00051861       0.00014181      -0.00029534      -1.53659772
H        4.42855625       5.04559842       5.44498216       0.13763270      -0.45135869      -0.13403546      -0.00105672      -0.00346241      -0.00155052      -0.00073210      -0.00066469      -0.00093302      -4.99505377
H        6.17800439       4.67732491       5.05733646       1.09945797       1.39724994       2.11398744      -0.00027076       0.00052826      -0.00007337       0.00126272      -0.00021555      -0.00040596      -3.12834903
H        3.39299295       5.15104623       5.02402324       0.95665585       0.01343643      -1.03054718       0.00077945       0.00122658       0.00186051       0.00042830       0.00056061      -0.00033897      -3.23169684
H        5.15469411       4.27940228       5.11425452      -4.47314324      -6.77293454       1.45690085      -0.00027861      -0.00270577      -0.00249493       0.00070905      -0.00102775      -0.00052483      -3.73578512
H        6.04037722       5.82206438       5.38783160       0.36698721      -0.01658598       0.83328355       0.00070012       0.00096259       0.00090634       0.00061211      -0.00094221      -0.00085447      -3.13805135
H        3.59853406       4.58060314       4.03759211      -3.32241021       4.78725438      -0.09550595      -0.00091296       0.00167640       0.00024620       0.00102343      -0.00022441       0.00018124      -2.49105850
H        5.88913358       3.95639509       5.85838494       0.09640751       1.43664404       1.21575907       0.00007475       0.00128986      -0.00031056       0.00006481      -0.00028962      -0.00045082      -1.71242868
H        3.99515111       4.19081094       4.97750435      -0.67641203      -2.44935645       1.77375038       0.00058152      -0.00005205      -0.00191627      -0.00062528       0.00007494      -0.00051330      -2.89444377
