20
Lattice="10.0 0.0 0.0 0.0 10.0 0.0 0.0 0.0 10.0" Properties=species:S:1:pos:R:3:forces:R:3:stresses:R:6:energies:R:1 energy=-19.50845084085389 stress="0.0042864382083979856 -0.000865416253258574 -0.0005994646544080474 -0.000865416253258574 0.002805060119728619 -0.001812105126103535 -0.0005994646544080474 -0.001812105126103535 0.003372845465009822" free_energy=-19.50845084085389 pbc="F F F"
H        5.29625752       5.98974505       7.08191364      -1.45624420       0.42607939      -0.59712568       0.00137473      -0.00008772       0.00018918      -0.00000254      -0.00065009      -0.00054847      -1.79937801
H        3.93571343       3.45759953       4.20500270      -1.54249504      -0.44379565       1.65019467       0.00105859       0.00091423       0.00085306      -0.00067306      -0.00014878      -0.00018342      -1.06337699
H        4.04537749       5.88681146       6.86882460       0.78580053      -0.04869055       0.92537506       0.00197986       0.00004502       0.00004359      -0.00019666       0.00027222       0.00045022      -2.37021145
H        3.22409136       5.19378345       7.25714378       1.22118703       0.63551591      -0.36812272       0.00060571       0.00039913       0.00009241      -0.00007727      -0.00030915       0.00038936      -1.10384275
H        6.37114253       5.74622473       7.18641861       0.35224392      -0.50593331      -0.61111185      -0.00014149       0.00004170       0.00032997       0.00013749       0.00020572       0.00023212      -1.05555822
H        5.91088802       5.36116255       6.22404015       2.72619270       1.68051537       1.66858890      -0.00143769       0.00048493       0.00098950       0.00063892      -0.00018109      -0.00048078      -1.40302302
H        3.63947741       6.92994722       6.91090553       0.75411669       0.25412125       0.26370032       0.00006000       0.00008062      -0.00000211      -0.00012636      -0.00008929      -0.00032099      -1.10122142
H        5.61228336       5.58301052       3.22829290       0.45677155       0.13795438       0.16710986       0.00032878       0.00022238       0.00005570      -0.00004372      -0.00000722       0.00023192      -1.01432748
H        2.83192647       4.87860242       4.06095313       0.29043304       0.23050459      -0.05305219       0.00019341       0.00000723       0.00003365      -0.00000077       0.00001536      -0.00017233      -0.56531188
H        2.95180848       6.09747364       6.66080417       0.04596178      -0.56050009      -0.32691159       0.00026300      -0.00038505      -0.00005137       0.00000671      -0.00005051      -0.00030685      -1.51765233
H        7.28849209       6.89769447       2.87667724      -0.13079331      -0.06045665       0.22620551       0.00008037       0.00005258       0.00019679       0.00000685      -0.00004799       0.00005776      -0.54498860
H        2.89363881       7.17182258       3.10514028      -0.00100921      -0.03750217       0.01563088       0.00000003       0.00004300       0.00000747      -0.00001792      -0.00000048       0.00000116      -0.00571324
H        4.84374559       5.30140381       6.36623221      -4.41343859      -1.93987136      -1.07636664      -0.00184793      -0.00049112      -0.00050090      -0.00054713       0.00003153      -0.00030487      -1.58453852
H        6.59247511       6.14085394       3.32805311      -0.45853706      -0.17235763       0.25930146       0.00030714       0.00025739       0.00021830       0.00011511       0.00004742       0.00024557      -1.06957522
H        3.58737629       2.88597474       6.16370769      -0.20412357       0.27213521       0.58964313      -0.00000437       0.00007468      -0.00020128      -0.00013796       0.00011205       0.00001759      -0.53624293
H        5.29060928       4.66706533       3.79983436      -0.11384520       0.10791759      -0.02001639       0.00031603       0.00031244       0.00012565      -0.00011347      -0.00010117       0.00025660      -0.58416910
H        6.98995263       7.12491076       4.81029208      -0.07927907      -0.25915309      -0.45533598       0.00004008       0.00013578       0.00044216       0.00014286       0.00002141       0.00006211      -0.09143773
H        2.82596542       3.78218448       4.25907933       1.73557012      -1.24545413       0.33094071       0.00096416      -0.00002152       0.00016377      -0.00010445       0.00010878      -0.00039005      -1.06590094
H        6.90213802       2.84166188       6.40888175      -0.00804658       0.02045233      -0.00150047       0.00000399       0.00002576       0.00000014      -0.00000189       0.00000074      -0.00001014      -0.00225475
H        3.85840227       2.69204517       5.10531366       0.03953448       1.50851864      -2.58714700       0.00014204       0.00069359       0.00038715      -0.00081683       0.00017110      -0.00009193      -1.02972627
