20
Lattice="10.0 0.0 0.0 0.0 10.0 0.0 0.0 0.0 10.0" Properties=species:S:1:pos:R:3:forces:R:3:stresses:R:6:energies:R:1 energy=-69.36491900519805 stress="0.0027266433469602417 -0.002356467623547844 0.0005511072010457954 -0.002356467623547844 0.0026821599995553347 -0.0002857412986805355 0.0005511072010457954 -0.0002857412986805355 -0.00012053184867227331" free_energy=-69.36491900519805 pbc="F F F"
H        4.99910225       5.95478839       5.40591790      -0.15704365      -0.19595126      -0.25381108      -0.00085300       0.00050327      -0.00047460      -0.00082660      -0.00071832       0.00000373      -4.75869988
H        4.59167723       4.75674193       4.09206345      -1.13258625       1.34658786      -0.28630262       0.00155812       0.00073852      -0.00013479       0.00030632      -0.00010510      -0.00061977      -3.18547024
H        4.48213860       5.22975871       6.19202753      -1.54315285       1.57133843       0.71756678       0.00056912       0.00000461      -0.00028440      -0.00151362       0.00048598       0.00027468      -4.20176199
H        3.47061469       5.67664214       6.36341015       0.22220428       0.02868029      -0.06681788       0.00110855       0.00022606       0.00026398       0.00040653       0.00026973       0.00016778      -2.70682502
H        5.42921830       5.79802813       6.39586991       0.24684091      -0.02036634      -0.00355300       0.00126878       0.00019815       0.00031825       0.00038367      -0.00056355      -0.00009824      -2.75713480
H        5.41714443       4.92672767       5.70973320      -0.34375785       0.32393506       0.06323470      -0.00217409      -0.00092075      -0.00008190      -0.00071044       0.00044604      -0.00038846      -4.73869477
H        4.41800918       6.31948277       6.28452542      -0.03617088      -0.00462582       0.04233425       0.00125757      -0.00001178       0.00033207       0.00030994      -0.00005738       0.00006768      -2.77245919
H        5.41251851       5.30567291       4.61647585       1.01490162      -1.28148452       1.18546519      -0.00150682       0.00026936       0.00092387      -0.00017740       0.00055570       0.00031750      -4.73434698
H        4.46172815       5.83942723       4.41597253      -0.32117685       0.21583811       0.12013084       0.00058465       0.00039779       0.00074957       0.00035141       0.00004113       0.00016689      -3.38360291
H        3.90480660       5.90875070       5.38689965       1.17933073      -1.66492462      -0.36525179      -0.00137347       0.00107417      -0.00025579      -0.00056689       0.00074655      -0.00053268      -4.61878075
H        6.45491766       5.58744246       4.39145769       0.22216413       0.16489116       0.03229524       0.00023262       0.00012206       0.00023469      -0.00004215      -0.00022342       0.00001122      -1.72512448
H        2.85235629       5.60384409       5.39628258       0.17093309      -0.37189149      -0.07842252       0.00037865      -0.00007642       0.00100662       0.00039308      -0.00009089      -0.00031438      -2.20279489
H        4.50392237       5.02302682       5.14176291       0.30690942       0.13629322      -0.17419106      -0.00485901      -0.00438182      -0.00591429      -0.00057597       0.00011396      -0.00096593      -5.63778021
H        6.23566473       4.68702116       5.01674292      -0.39209205      -0.25434937      -0.18602155       0.00073479       0.00049731      -0.00021181       0.00046805       0.00027779       0.00022680      -3.18966101
H        3.58110691       4.81447601       5.65871546       0.16098670      -0.15648276      -0.14183127      -0.00041029       0.00127651       0.00054124       0.00038993       0.00019919       0.00040385      -3.71168077
H        5.19444593       4.21581211       4.88133336      -0.89725086       1.38109617      -1.45277087       0.00214983       0.00104648       0.00010319      -0.00013513       0.00004824       0.00073066      -3.72398078
H        6.08402372       5.73928872       5.43526350      -0.10725584       0.03873128      -0.28392991       0.00048736       0.00023149       0.00102527       0.00073540       0.00011406      -0.00022806      -3.23060168
H        3.56389092       5.18694776       4.59761783       1.36928399      -0.79278960       0.17777044       0.00161209       0.00089440       0.00109276       0.00049541      -0.00079314      -0.00056820      -3.64459626
H        5.84911014       3.91120285       5.72660565       0.14572115      -0.18406917       0.17009022       0.00028655       0.00031366       0.00005480      -0.00013733       0.00000118      -0.00008507      -1.75288586
H        3.98536499       4.14489521       4.79883345      -0.10878894      -0.28045665       0.78401590       0.00167463       0.00027908       0.00059073       0.00016004      -0.00019664      -0.00092647      -2.68803654
