20
Lattice="10.0 0.0 0.0 0.0 10.0 0.0 0.0 0.0 10.0" Properties=species:S:1:pos:R:3:forces:R:3:stresses:R:6:energies:R:1 energy=-69.6022852417307 stress="0.0004061256211570567 0.00020197554024246325 4.522022332753853e-05 0.00020197554024246325 0.0003640739489047815 0.00010484638464828304 4.522022332753853e-05 0.00010484638464828304 0.0001063606907323145" free_energy=-69.6022852417307 pbc="F F F"
H        4.86005588       5.98114812       5.49768516      -0.00952885      -0.05747909      -0.07498019      -0.00074172       0.00062199      -0.00088372      -0.00077244      -0.00079047      -0.00029642      -4.75528541
H        4.62745989       4.91804306       4.04093518      -0.03501231       0.07295003       0.00190476       0.00144165       0.00042301       0.00004069       0.00012322       0.00005128       0.00025571      -3.25899079
H        4.48153662       5.10388601       6.19072407      -0.02431934       0.11445192       0.03188919       0.00022987      -0.00013657      -0.00031820      -0.00128051       0.00052956       0.00041160      -4.24975883
H        3.40560522       5.29631561       6.38682828      -0.01004358       0.00707040      -0.00195063       0.00081273       0.00052156       0.00035107       0.00066919       0.00029447       0.00043107      -2.67928150
H        5.31649922       5.79772424       6.46817133       0.02198034      -0.02190423      -0.00690202       0.00145247       0.00021340       0.00036571       0.00035487      -0.00067237       0.00005311      -2.74263285
H        5.46314009       5.01200515       5.69197065      -0.11665354      -0.04747628      -0.04242061      -0.00202641      -0.00040110       0.00048171      -0.00027835       0.00004891      -0.00067156      -4.70794094
H        4.21166267       6.13944836       6.39413032       0.00483535      -0.00185821      -0.01925535       0.00159380      -0.00009608       0.00048179       0.00019923      -0.00008183       0.00045610      -2.73353574
H        5.38745295       5.51918389       4.64357804      -0.05130304      -0.04798296       0.11932516      -0.00088312      -0.00014666       0.00112016       0.00004806       0.00077447      -0.00001227      -4.73692605
H        4.34039475       5.89231552       4.50593629       0.01805816       0.03806974       0.00821096       0.00078612       0.00033458       0.00034705      -0.00004972       0.00020946       0.00023882      -3.39348953
H        3.79998055       5.70217033       5.45610887      -0.07464630      -0.14290207      -0.02119582      -0.00151174       0.00036784      -0.00091565      -0.00016888       0.00107416      -0.00061228      -4.64802797
H        6.37177791       5.99776357       4.47681375      -0.03066407      -0.02629732       0.03890467       0.00033113       0.00022868       0.00016948      -0.00011661      -0.00020729       0.00012936      -1.72274515
H        2.83462273       5.18159676       5.39483192       0.09130652       0.02499396       0.03307157       0.00045240      -0.00026348       0.00099204       0.00023207      -0.00015240      -0.00002348      -2.21799034
H        4.55951579       5.00755009       5.12192986       0.07369163       0.03258439      -0.00835468      -0.00606030      -0.00511376      -0.00615918      -0.00081215      -0.00010672      -0.00053133      -5.59754701
H        6.30181665       5.00148709       4.98211345      -0.04783733      -0.00204065      -0.04943445       0.00049858       0.00052272      -0.00005181       0.00056095       0.00016037       0.00012810      -3.19296158
H        3.71078981       4.54469362       5.60043888       0.03118188       0.06554280       0.01851038      -0.00061122       0.00127365       0.00081056       0.00054455      -0.00002190      -0.00003561      -3.72237534
H        5.36609715       4.40639967       4.71978963       0.07676484       0.10532297      -0.03095896       0.00102723       0.00059543       0.00052759       0.00042930       0.00026039       0.00102124      -3.76738520
H        5.96658025       5.95984924       5.51652843      -0.06195803      -0.05004002      -0.06181157       0.00055644       0.00006859       0.00105954       0.00063220      -0.00009245      -0.00018182      -3.23322408
H        3.61682460       5.02195495       4.58113024       0.12414848      -0.10641227       0.00540425       0.00084898       0.00081919       0.00093894       0.00014496      -0.00082767      -0.00003485      -3.71817968
H        6.02489840       4.07227913       5.54868669       0.07713209      -0.07049023       0.07050348       0.00042837       0.00036705       0.00001102      -0.00014132       0.00002157      -0.00009650      -1.77021297
H        4.24505052       4.07416317       4.68917957      -0.05713291       0.11389710      -0.01046014       0.00178086       0.00016406       0.00073758      -0.00021378      -0.00042634      -0.00042701      -2.75379428
