20
Lattice="10.0 0.0 0.0 0.0 10.0 0.0 0.0 0.0 10.0" Properties=species:S:1:pos:R:3:forces:R:3:stresses:R:6:energies:R:1 energy=-63.47627702955448 stress="-0.0033823790857925667 -0.001732790178025665 -0.001319229778662458 -0.001732790178025665 -0.010234868211578442 0.00781621202595792 -0.001319229778662458 0.00781621202595792 -0.005482339004154732" free_energy=-63.47627702955448 pbc="F F F"
H        4.92778617       5.99843482       5.48349605      -1.24900288      -0.64255382       1.03167247       0.00035101       0.00089866       0.00158012      -0.00034582      -0.00020410      -0.00042519      -4.47004867
H        4.68768076       4.52022394       4.20115997       4.88082742      -1.17783947      -2.07251284      -0.00153924      -0.00154664      -0.00032421       0.00102330      -0.00004951       0.00075284      -2.99901717
H        4.61938876       5.38291362       6.44197232      -0.51912620       0.61885114       0.06659445      -0.00161586      -0.00090745      -0.00003805      -0.00172567       0.00090879       0.00034126      -3.58304899
H        3.64918894       5.74301313       6.77553516      -1.44122097       0.81351107      -0.46793487      -0.00052512       0.00008342       0.00077141       0.00007190      -0.00004699       0.00045582      -1.71315454
H        5.52297658       6.01729728       6.39962183       0.29918749      -0.85529506      -0.66559469       0.00082185       0.00101703       0.00048266       0.00088833      -0.00057357      -0.00049489      -2.71571769
H        5.44997466       4.99833398       5.86423633       1.39359854       0.82575031       1.96482614      -0.00075749       0.00059495      -0.00129225      -0.00027322       0.00089515      -0.00100536      -4.63456709
H        4.45072509       6.46670553       6.44795937       2.36716017      -0.24940847      -1.70299256       0.00118099      -0.00009961       0.00099986       0.00065043      -0.00068364      -0.00053111      -2.60917276
H        5.31198117       5.23751353       4.80299258      -5.42088476       1.70421321      -3.55157476      -0.00400542      -0.00345225      -0.00205623       0.00067554      -0.00008537       0.00017718      -4.67153276
H        4.31268978       5.49425379       4.45234661      -4.64190247       4.43945640       2.54511021       0.00059160      -0.00030249       0.00179929       0.00032793       0.00066590       0.00126821      -3.92083550
H        3.84392663       5.93202673       5.68513780       0.66379343      -1.05954407      -0.33390292       0.00054233       0.00005729       0.00183813      -0.00015079       0.00031034      -0.00062809      -3.45003864
H        6.25578941       5.43975721       4.33245712       2.51041275       1.99509886      -1.32473831      -0.00086037      -0.00022098       0.00021071       0.00071991       0.00039646      -0.00022024      -1.71674892
H        3.22573810       5.68858490       4.09763975      -0.28970147       6.48048849      -5.99879398       0.00094792      -0.00217227      -0.00270950       0.00165993       0.00009212       0.00053687      -1.54858584
H        4.42100779       5.02863019       5.44387626       0.58802070      -0.69376525      -2.01209571      -0.00015753      -0.00284157      -0.00111995      -0.00069059      -0.00076472      -0.00094937      -5.08977938
H        6.17532429       4.64269488       5.08285472       1.36897591       0.11646074       2.28874291      -0.00029190       0.00034299      -0.00033438       0.00135960      -0.00024555       0.00008879      -3.12592077
H        3.39175301       5.18032924       4.99852036       3.34165414      -5.66788769       7.60163191       0.00124163      -0.00063455      -0.00277172       0.00222175      -0.00047550      -0.00005964      -3.16425721
H        5.14017596       4.23721394       5.14550731      -4.27314847      -5.25964077       0.53613923       0.00049234      -0.00199730      -0.00218226       0.00074904      -0.00089529      -0.00032254      -3.71598137
H        6.03420912       5.79252486       5.39827914       1.43285662       0.20631093       0.07448252       0.00033384       0.00080775       0.00065679       0.00063853      -0.00074316      -0.00091967      -3.16596231
H        3.63227384       4.68687453       4.00886837      -0.74616738      -0.75135019       0.16490751      -0.00108485      -0.00109435       0.00050901       0.00057900       0.00018260       0.00123106      -2.61620756
H        5.87685675       3.94364069       5.89811160       0.37469068       0.96460467       1.32112425      -0.00002915       0.00104529      -0.00036425       0.00004363      -0.00032085      -0.00036050      -1.71939467
H        3.96231478       4.19901094       4.94693823      -0.64002326      -1.80746105       0.53490906       0.00098102       0.00018720      -0.00113753      -0.00060652       0.00031765      -0.00066821      -2.84630516
