20
Lattice="10.0 0.0 0.0 0.0 10.0 0.0 0.0 0.0 10.0" Properties=species:S:1:pos:R:3:forces:R:3:stresses:R:6:energies:R:1 energy=-69.59993913606617 stress="0.0007292173451513741 5.189293485545506e-05 -1.050817589593688e-06 5.189293485545506e-05 0.0007690456205182304 -6.262497662798457e-05 -1.050817589593688e-06 -6.262497662798457e-05 0.0007114754965332489" free_energy=-69.59993913606617 pbc="F F F"
H        4.87419766       5.97965880       5.49011143       0.06787135      -0.08010285       0.00373914      -0.00079930       0.00061520      -0.00080667      -0.00078455      -0.00078820      -0.00027770      -4.75552161
H        4.62541623       4.90589557       4.04442193      -0.11620054       0.00979999       0.08230225       0.00146746       0.00043109       0.00007219       0.00009537       0.00003524       0.00018594      -3.25978615
H        4.47789910       5.11524082       6.19289616      -0.12203192       0.30315123      -0.06637754       0.00033819      -0.00007928      -0.00022163      -0.00128730       0.00051166       0.00040017      -4.24597709
H        3.40438924       5.33227182       6.38307391       0.10940121       0.13515279      -0.01673917       0.00088404       0.00050326       0.00034713       0.00061533       0.00028812       0.00044639      -2.68008423
H        5.32568919       5.79759129       6.46450153      -0.01513951      -0.01941425      -0.15292796       0.00147485       0.00022390       0.00042409       0.00034999      -0.00064771       0.00004406      -2.74227442
H        5.45829973       5.00285879       5.69574553      -0.10679498      -0.11618076      -0.09994715      -0.00202671      -0.00041957       0.00049054      -0.00027601       0.00004074      -0.00064527      -4.70939602
H        4.22921842       6.15942667       6.38447197      -0.05256378      -0.12025104      -0.03814289       0.00160465      -0.00004852       0.00047693       0.00022157      -0.00007523       0.00042913      -2.73514341
H        5.39265308       5.49804461       4.64065685       0.15062459      -0.06428439       0.24026555      -0.00095658      -0.00011641       0.00111713       0.00003914       0.00073507       0.00000680      -4.73789282
H        4.35564305       5.89132829       4.49785392      -0.05371492      -0.00885498       0.04722573       0.00074499       0.00035219       0.00037794      -0.00006435       0.00019317       0.00023361      -3.39443035
H        3.80907245       5.72347483       5.44934074       0.02488336      -0.28461044       0.03546343      -0.00153407       0.00043284      -0.00081232      -0.00021637       0.00104898      -0.00061413      -4.64682804
H        6.38473840       5.95931788       4.46842205      -0.07575130      -0.09477044       0.09866702       0.00035370       0.00025204       0.00019284      -0.00012954      -0.00021877       0.00013243      -1.72290960
H        2.83322298       5.22384872       5.39087583       0.05022624      -0.00944624       0.00195904       0.00043075      -0.00026407       0.00098860       0.00024627      -0.00015967      -0.00005567      -2.21682920
H        4.55502139       5.00814962       5.12454954       0.04165486       0.07966975      -0.04808995      -0.00599894      -0.00501699      -0.00604209      -0.00079593      -0.00011811      -0.00057994      -5.60387251
H        6.29792235       4.96969459       4.98654942      -0.09389600       0.00234187      -0.07310125       0.00052989       0.00053890      -0.00004967       0.00053112       0.00015707       0.00014911      -3.19399458
H        3.69466533       4.56987432       5.60478251       0.06432489      -0.02546743      -0.01842494      -0.00062254       0.00125584       0.00076721       0.00052499       0.00001023       0.00001806      -3.72149383
H        5.35179665       4.38550877       4.73296101      -0.03578125       0.27273835      -0.00431788       0.00118479       0.00066054       0.00056915       0.00040171       0.00029116       0.00098181      -3.76561336
H        5.97950349       5.93851479       5.50905715      -0.03921232       0.00385749      -0.03515087       0.00053093       0.00005978       0.00108143       0.00063417      -0.00008922      -0.00018820      -3.23170949
H        3.61403194       5.03800480       4.58052562       0.17111188      -0.11318709       0.02597187       0.00089335       0.00081663       0.00094897       0.00017848      -0.00083188      -0.00005557      -3.71750478
H        6.00755509       4.05360224       5.56706312       0.02589916      -0.04611294       0.01021287       0.00043328       0.00036991       0.00004365      -0.00015396       0.00004245      -0.00010758      -1.76909009
H        4.22082588       4.07767038       4.69965040       0.00508898       0.17597137       0.00741271       0.00179651       0.00020175       0.00074605      -0.00019278      -0.00042614      -0.00045155      -2.74958756
