20
Lattice="10.0 0.0 0.0 0.0 10.0 0.0 0.0 0.0 10.0" Properties=species:S:1:pos:R:3:forces:R:3:stresses:R:6:energies:R:1 energy=-66.871711616798 stress="0.0005360790778336336 0.0001008115759360662 0.0012118989330633446 0.0001008115759360662 -0.002748040453994546 0.0014250984765982928 0.0012118989330633446 0.0014250984765982928 -0.0012457833764338512" free_energy=-66.871711616798 pbc="F F F"
H        4.98367293       5.91926192       5.46056518       0.64891560      -0.01241741      -0.05771415      -0.00177244       0.00051650      -0.00120497      -0.00082346       0.00028170       0.00060707      -4.76135366
H        4.55514969       4.69463359       4.16593769      -1.04852426       2.27839876      -2.18786832      -0.00171818       0.00001429       0.00000914       0.00106497      -0.00055571      -0.00092024      -3.23645570
H        4.57915493       5.26807705       6.30913059      -0.05372949      -0.92485090      -0.14290699      -0.00041353      -0.00077383       0.00028915      -0.00063191       0.00056383       0.00085533      -3.87472850
H        3.66286378       5.74442619       6.69192520      -0.21158840       0.35603397       0.12364302       0.00041186       0.00034017       0.00034440       0.00036055       0.00009424       0.00053411      -1.82320366
H        5.56657825       5.80462170       6.38183764       0.18311197       0.15444219       0.15454036       0.00088704       0.00007701       0.00038636       0.00024694      -0.00049841      -0.00002987      -2.76826657
H        5.43474817       4.91988414       5.73318438      -0.88156943      -0.88229022      -0.30354325      -0.00115104      -0.00114203      -0.00082882      -0.00042371       0.00108356      -0.00016488      -4.76611166
H        4.58178993       6.36402683       6.39629764      -0.58395361       0.02664427      -0.09379039       0.00097256      -0.00005919       0.00046296       0.00025933      -0.00003214       0.00010456      -2.70642432
H        5.31817824       5.25623140       4.67860975       0.37900750       1.19149137      -0.74950646      -0.00173820      -0.00166904      -0.00134211      -0.00096792      -0.00015842      -0.00055686      -4.73887022
H        4.31485445       5.76793465       4.56754340      -0.34381240      -0.21043850       0.26175778       0.00182690       0.00076828       0.00090227       0.00076221      -0.00046290      -0.00032456      -3.92101639
H        3.92276014       5.86510595       5.63252141      -0.20332144       0.98461980       0.01215381      -0.00229710      -0.00041988      -0.00091169       0.00054183      -0.00039122      -0.00040232      -4.25700708
H        6.30177478       5.53312304       4.27698938       0.44255952      -0.02952421       0.14625588       0.00006690       0.00025285       0.00039888      -0.00008687      -0.00014046       0.00000664      -1.73635248
H        3.20796470       5.94556716       4.81947970      -0.07476249       0.24140753      -0.03523405       0.00076784       0.00009756      -0.00056490      -0.00084426      -0.00038353      -0.00025611      -2.22138222
H        4.42933828       4.95183215       5.26828299       0.72433392       0.24190528      -0.05897946      -0.00071925      -0.00192977      -0.00057038       0.00021595       0.00067066      -0.00003282      -5.59178908
H        6.19497547       4.66122373       4.97791181      -0.26159239      -0.38013222      -0.15326567       0.00068861       0.00051718      -0.00008315       0.00030078       0.00010338       0.00037795      -3.19288845
H        3.34247763       4.95926787       5.39934898       0.25329859       0.06450854      -0.20342569       0.00054381       0.00105230       0.00116146       0.00013935      -0.00008186      -0.00018476      -3.03711271
H        5.14689862       4.18970722       4.93591122       0.06295123      -0.89077056       0.66387895       0.00178241       0.00013111      -0.00054208       0.00052889      -0.00030597       0.00085794      -3.64893185
H        6.07561253       5.72587069       5.35753419      -0.09080473       0.07266036       0.33638999       0.00054928       0.00034586       0.00059668       0.00044195      -0.00010873      -0.00016213      -3.25706265
H        3.51838910       5.03572940       4.30695732       1.03068994      -0.95558411       0.06786049       0.00021816      -0.00131596       0.00045755      -0.00017768       0.00131692       0.00059112      -2.98557196
H        5.86485436       3.90114410       5.73531168       0.12446692       0.09052362       0.00995906       0.00027187       0.00043082       0.00012789      -0.00018458      -0.00000372      -0.00011665      -1.75090072
H        3.88972562       4.12230893       4.81223075      -0.09567656      -1.41662756       2.20979512       0.00135858       0.00001773      -0.00033442       0.00070275       0.00022068      -0.00068271      -2.59628173
