20
Lattice="10.0 0.0 0.0 0.0 10.0 0.0 0.0 0.0 10.0" Properties=species:S:1:pos:R:3:forces:R:3:stresses:R:6:energies:R:1 energy=-69.35410607916714 stress="0.0022441009064231134 -0.0021916385438336705 0.0006009635731387857 -0.0021916385438336705 0.002245035037880318 -0.0003823931867354011 0.0006009635731387857 -0.0003823931867354011 4.685738373432588e-05" free_energy=-69.35410607916714 pbc="F F F"
H        5.00231531       5.95318491       5.40265326      -0.31156555      -0.15231835      -0.18990888      -0.00093184       0.00047629      -0.00047520      -0.00083809      -0.00073967       0.00004544      -4.75782128
H        4.58583392       4.74813709       4.09775920      -1.30665214       1.42054853      -0.33348659       0.00149275       0.00077568      -0.00014537       0.00032070      -0.00015901      -0.00064236      -3.18763790
H        4.48521792       5.23289670       6.19728845      -1.13211080       1.55005966       0.42593687       0.00070011       0.00001087      -0.00013463      -0.00150133       0.00043190       0.00027001      -4.19582301
H        3.47574935       5.68518880       6.36352730       0.07906132       0.21610725       0.11484398       0.00110114       0.00012574       0.00020249       0.00034813       0.00032004       0.00017717      -2.70513100
H        5.43817710       5.80028355       6.39076268       0.07861510      -0.05989967      -0.03072940       0.00133878       0.00022527       0.00032387       0.00038635      -0.00055114      -0.00007887      -2.75584530
H        5.41861868       4.92688806       5.70781945      -0.44623934       0.27504433       0.12880906      -0.00205389      -0.00100518      -0.00006839      -0.00061598       0.00035634      -0.00040974      -4.74580128
H        4.42587974       6.32306544       6.28196051       0.00421367       0.01452291       0.02837455       0.00127797      -0.00002572       0.00033524       0.00031820      -0.00005093       0.00005389      -2.77254918
H        5.40767783       5.29606795       4.61627037       1.09509753      -1.11098040       0.98337968      -0.00178587       0.00015531       0.00076410      -0.00013407       0.00055804       0.00032321      -4.73404727
H        4.46190750       5.83568323       4.41585893      -0.29511965       0.14441640       0.02255392       0.00050529       0.00044853       0.00071901       0.00034320       0.00004640       0.00016013      -3.38566673
H        3.90779224       5.91345062       5.38629486       1.19646329      -1.68787427      -0.29557234      -0.00135998       0.00110261      -0.00031829      -0.00058955       0.00077664      -0.00054352      -4.61148115
H        6.44285255       5.58399282       4.37409533       0.24480093       0.09931465       0.24758583       0.00019085       0.00017646       0.00034789      -0.00006480      -0.00024440      -0.00000359      -1.72575869
H        2.85535532       5.60705635       5.39473698       0.05818987      -0.21461170       0.11819292       0.00034408      -0.00011086       0.00097144       0.00038035      -0.00002372      -0.00026026      -2.20609595
H        4.50140919       5.02184386       5.14641534       0.41033503       0.28274460      -0.03002086      -0.00504937      -0.00430872      -0.00581877      -0.00054201       0.00014703      -0.00102813      -5.63792699
H        6.23571983       4.68457777       5.00991490      -0.52437042      -0.28894042      -0.16107373       0.00084071       0.00050106      -0.00017796       0.00047273       0.00019539       0.00032155      -3.18460819
H        3.58138179       4.82072807       5.66816088       0.03324290      -0.38022923      -0.31713838      -0.00052529       0.00116178       0.00049383       0.00027501       0.00024237       0.00044310      -3.70788885
H        5.18641979       4.20878952       4.88700501      -0.53025959       1.41987835      -1.10317863       0.00232634       0.00108127       0.00018649      -0.00013227       0.00009239       0.00074867      -3.71669359
H        6.08544688       5.73625917       5.42551813       0.10993834       0.08887825      -0.40911083       0.00041572       0.00019304       0.00108494       0.00073907       0.00009186      -0.00022588      -3.23107423
H        3.56329734       5.18882697       4.60263991       1.25779716      -0.89258021       0.04882002       0.00145804       0.00079844       0.00106198       0.00044912      -0.00076174      -0.00054028      -3.65075956
H        5.85686266       3.91589097       5.72936313       0.02410554      -0.27469153       0.02208517       0.00031286       0.00025056       0.00012492      -0.00014879       0.00007524      -0.00009224      -1.75326145
H        3.97384665       4.14716588       4.80946632      -0.04554321      -0.44938914       0.72963765       0.00164569       0.00021260       0.00056926       0.00015163      -0.00020206      -0.00090994      -2.68823448
