20
Lattice="10.0 0.0 0.0 0.0 10.0 0.0 0.0 0.0 10.0" Properties=species:S:1:pos:R:3:forces:R:3:stresses:R:6:energies:R:1 energy=-69.27661778433821 stress="-0.00037548356504250543 -0.001358900101172462 0.0010261895346552418 -0.001358900101172462 0.002957862113444124 -0.0016514436634539212 0.0010261895346552418 -0.0016514436634539212 0.0013629201154628644" free_energy=-69.27661778433821 pbc="F F F"
H        5.02273354       5.96001598       5.39733456      -0.57991514      -0.65412721      -0.76542223      -0.00118609       0.00066972      -0.00031542      -0.00085379      -0.00067156       0.00025033      -4.70389198
H        4.58734107       4.73786756       4.10466695      -1.59297415       1.10564213       0.46867429       0.00148887       0.00099425       0.00022333       0.00015927      -0.00021140      -0.00067715      -3.20972562
H        4.46176789       5.23091465       6.20607453       0.15558359       1.61576023      -0.34649000       0.00085026       0.00031990       0.00023636      -0.00146061       0.00041845       0.00051302      -4.12879872
H        3.47444455       5.72074336       6.32917281      -0.33362802       0.52842179      -0.21937711       0.00077433      -0.00000755       0.00041866       0.00026939       0.00021940       0.00023596      -2.72318650
H        5.42844981       5.79728801       6.39573531       0.44444717      -0.02433863       0.25650661       0.00134368      -0.00007181       0.00025214       0.00024802      -0.00062909       0.00016455      -2.73815059
H        5.40673857       4.92670084       5.72700735      -1.44112506       0.13798737      -0.30311722      -0.00188927      -0.00131571      -0.00012904      -0.00089085       0.00043342      -0.00045453      -4.73936760
H        4.43943340       6.32645079       6.26908480      -0.40488926       0.31574009       0.18667191       0.00084213      -0.00002785       0.00019308       0.00033942      -0.00003936       0.00010382      -2.79236343
H        5.40972746       5.27776553       4.62116400       1.74008145      -1.50857256       1.39466807      -0.00204018       0.00022060       0.00079477      -0.00026265       0.00052609       0.00023160      -4.72635066
H        4.48633549       5.83952748       4.39773499      -0.07707781      -0.23888416       0.21367241       0.00040270       0.00064094       0.00080772       0.00024817       0.00022490       0.00022734      -3.37353665
H        3.93151499       5.94990081       5.35633965       0.20404086      -2.18857475       0.28059585      -0.00179474       0.00134865      -0.00004010      -0.00068306       0.00076970      -0.00030775      -4.54806511
H        6.45711247       5.50869500       4.37749963       0.41277716       0.43347080       0.11078779       0.00012378       0.00004822       0.00033600       0.00006375      -0.00022267      -0.00004984      -1.72415763
H        2.87910223       5.65926057       5.34779945      -0.67461117      -0.05136735       0.10115869       0.00004087      -0.00022602       0.00085209       0.00037589      -0.00002327      -0.00025657      -2.21349169
H        4.49697507       5.03686738       5.15007531       1.33586143       0.71188206       0.13148723      -0.00518497      -0.00417837      -0.00531419      -0.00046687       0.00025749      -0.00099573      -5.66685642
H        6.21701054       4.64670487       5.04152078      -0.45486879      -0.59400332      -0.29913936       0.00075241       0.00031064      -0.00031580       0.00040911       0.00036870       0.00017564      -3.19578963
H        3.56062201       4.84732971       5.64458682       0.19344022      -0.22502154       0.36440525      -0.00056251       0.00107924       0.00021138       0.00018344       0.00029928       0.00065232      -3.68663995
H        5.16540335       4.19866854       4.92090230      -0.82302483       1.63051610      -1.47454779       0.00218516       0.00116158       0.00028472      -0.00026788       0.00009374       0.00058500      -3.75618033
H        6.09390776       5.70927814       5.42170230       0.46020838       0.31321832      -0.07083496       0.00023689       0.00007873       0.00119689       0.00070571      -0.00004502      -0.00021926      -3.21457847
H        3.58003375       5.20216047       4.57936363       1.39215025      -0.98828357       0.09408955       0.00128730       0.00125082       0.00095100       0.00054741      -0.00065069      -0.00054677      -3.65786382
H        5.81566370       3.90554535       5.77935395       0.03594591      -0.28926121      -0.02401693       0.00032775       0.00022943       0.00016034      -0.00016449       0.00006890      -0.00007316      -1.75501473
H        3.97744396       4.14829269       4.84039183       0.00757782      -0.03020458      -0.09977206       0.00162614       0.00043245       0.00055899      -0.00015080      -0.00016083      -0.00091771      -2.72260825
