20
Lattice="10.0 0.0 0.0 0.0 10.0 0.0 0.0 0.0 10.0" Properties=species:S:1:pos:R:3:forces:R:3:stresses:R:6:energies:R:1 energy=-69.29007344765121 stress="0.0005152797837716588 -0.001617250657106814 0.0009450366203555051 -0.001617250657106814 0.0033804872242011153 -0.0013270074412713446 0.0009450366203555051 -0.0013270074412713446 0.0018710657556523244" free_energy=-69.29007344765121 pbc="F F F"
H        5.02082343       5.95818698       5.39746083      -0.17542991      -0.62399053      -0.61379971      -0.00111581       0.00063189      -0.00027947      -0.00086045      -0.00067870       0.00017881      -4.71148623
H        4.58541539       4.74099964       4.10382589      -1.57732535       1.07134158       0.35589711       0.00147593       0.00095311       0.00017671       0.00016058      -0.00020592      -0.00069648      -3.20684647
H        4.46567324       5.23236521       6.20773531      -0.21361438       1.63172988      -0.57951766       0.00099119       0.00030851       0.00036250      -0.00143206       0.00038483       0.00040636      -4.13894776
H        3.47329589       5.72299054       6.33383767       0.12608067       0.14308521      -0.27297461       0.00092474       0.00015516       0.00039104       0.00036545       0.00015934       0.00016580      -2.72417385
H        5.43163774       5.79708501       6.39508099       0.41580640       0.03812671       0.15312440       0.00134125      -0.00005879       0.00030170       0.00024256      -0.00061778       0.00012590      -2.73890623
H        5.40902610       4.92634182       5.72564808      -1.42722286       0.02300985      -0.45006890      -0.00180518      -0.00121683      -0.00003945      -0.00086017       0.00043448      -0.00047762      -4.74110695
H        4.44113086       6.32730151       6.27087012      -0.41294101       0.28245666       0.15602101       0.00091266      -0.00003572       0.00021513       0.00033895      -0.00003507       0.00011014      -2.78917085
H        5.40947705       5.27893114       4.61875817       1.46406167      -1.43348806       1.55740885      -0.00197592       0.00026394       0.00085735      -0.00026339       0.00050981       0.00023190      -4.72457757
H        4.48299334       5.84039773       4.39998001      -0.05201059      -0.31831001       0.25434000       0.00045424       0.00065370       0.00080400       0.00021754       0.00021639       0.00021113      -3.37568157
H        3.93010797       5.94756401       5.36040258       0.18278301      -2.26066210       0.24583354      -0.00176333       0.00138258      -0.00004461      -0.00066506       0.00078963      -0.00033404      -4.55146438
H        6.45533589       5.51392935       4.37473956       0.46469705       0.44336835       0.08081519       0.00009845       0.00004430       0.00032504       0.00006198      -0.00021374      -0.00005539      -1.72312524
H        2.87790621       5.65255294       5.35871190      -0.70119782       0.00274443      -0.06746799       0.00004935      -0.00024035       0.00078880       0.00038539      -0.00007465      -0.00022925      -2.21611563
H        4.49738581       5.03505997       5.15023067       1.18773036       0.88440974       0.17865150      -0.00509086      -0.00417144      -0.00517388      -0.00049401       0.00032457      -0.00099603      -5.67098503
H        6.21785733       4.64901039       5.03590832      -0.52607268      -0.63092359      -0.25330366       0.00079785       0.00029415      -0.00031444       0.00043800       0.00034296       0.00020097      -3.19395246
H        3.56486343       4.84377381       5.64889753       0.11706159      -0.03076145       0.48752220      -0.00062411       0.00119946       0.00034882       0.00028358       0.00031208       0.00063518      -3.68536259
H        5.16383637       4.19866005       4.91806249      -0.73046588       1.70334513      -1.59973919       0.00216414       0.00115580       0.00025300      -0.00023850       0.00007255       0.00067884      -3.74998642
H        6.09548026       5.71001945       5.42050938       0.17310435       0.33016438      -0.10263015       0.00037016       0.00009383       0.00120589       0.00071055      -0.00002230      -0.00023043      -3.21533391
H        3.57618621       5.20274477       4.58267074       1.58497572      -1.01923141       0.28930049       0.00139089       0.00124344       0.00104774       0.00052213      -0.00062297      -0.00054960      -3.65688595
H        5.81786017       3.90336400       5.76893731       0.10096060      -0.27376502       0.14083696       0.00029424       0.00025974       0.00008587      -0.00013822       0.00002625      -0.00008145      -1.75488239
H        3.97546891       4.14869941       4.83524339      -0.00098093       0.03735026       0.03975062       0.00162539       0.00046402       0.00055932      -0.00010186      -0.00015673      -0.00091201      -2.72108196
