20
Lattice="10.0 0.0 0.0 0.0 10.0 0.0 0.0 0.0 10.0" Properties=species:S:1:pos:R:3:forces:R:3:stresses:R:6:energies:R:1 energy=-41.39037166865783 stress="0.008986027315293467 0.0024825904621004133 -0.007729296159276305 0.0024825904621004133 -0.001819966134864938 0.00030305515228150825 -0.007729296159276305 0.00030305515228150825 0.0024036773274332497" free_energy=-41.39037166865783 pbc="F F F"
H        5.05061136       5.85864802       5.93544449      -3.05113236       6.74074332      -0.50645873       0.00130669      -0.00229909       0.00111080       0.00160915      -0.00078602       0.00017630      -2.63141337
H        4.31321051       3.99929210       4.06518138      -2.72537680      -0.79683140       0.34818471       0.00063589      -0.00022449       0.00061251      -0.00016752      -0.00104695      -0.00027144      -2.18720064
H        4.47864868       5.28884413       6.68140294      -1.09767986      -0.10877215       2.61459633      -0.00086189      -0.00068063      -0.00130960      -0.00019774       0.00129626       0.00006839      -3.56734521
H        3.46612829       5.31388096       7.11684812       0.66799430       1.95282244      -0.96756601       0.00029085       0.00106791       0.00066678      -0.00023498      -0.00021063       0.00071898      -1.49954208
H        5.25308707       6.01559588       7.05535114      -1.94534050      -1.94477780      -3.15160139       0.00132397       0.00122658       0.00141298       0.00086479       0.00034368      -0.00020370      -1.90494407
H        5.47635844       4.95549386       6.32576677       3.26996452      -2.25655471       3.20700306      -0.00086936      -0.00060034       0.00037970       0.00147732      -0.00077731       0.00060073      -1.97972047
H        4.16749208       6.34693095       6.81101751       3.07363495      -1.01499931       1.40009327       0.00147458       0.00062845       0.00014757      -0.00045092      -0.00121045      -0.00039865      -2.16732850
H        5.26906032       5.23425342       3.96602112      -2.08216023       1.59017492      -1.54100282       0.00173327       0.00010466      -0.00020037       0.00052493      -0.00065644       0.00068487      -1.82990677
H        4.14303432       5.05400623       4.33672503       1.53928082       0.81569370       0.59445895       0.00084775       0.00014339       0.00111950      -0.00067434       0.00013580       0.00085044      -2.98594331
H        3.62586932       5.74739077       6.08812184       2.22527285      -3.42612483      -2.32927964       0.00187446       0.00028637      -0.00008019      -0.00035853      -0.00082205      -0.00119724      -2.57893113
H        6.40668405       6.15194278       3.53720075      -0.69708684      -0.57628899       1.03701594       0.00052631       0.00038104       0.00045280      -0.00010010      -0.00012435       0.00043126      -1.14793138
H        2.93554123       6.89283418       3.22079321       0.03545997      -0.06141392       0.03908640       0.00002511       0.00006100       0.00002649      -0.00003842       0.00001967      -0.00003251      -0.00786448
H        4.59727554       4.89620364       5.67823465      -2.31147612      -2.22159191      -4.24867579      -0.00121753       0.00011435      -0.00045466      -0.00026014      -0.00080515      -0.00050828      -3.63438430
H        6.25230747       5.47205611       4.41994607      -0.34174659      -0.50782587       0.72541488       0.00032289       0.00017578       0.00028058      -0.00018447      -0.00049548       0.00022969      -1.69250198
H        3.59154777       4.97414647       5.28115605      -1.79710603       5.00640961       4.54984800      -0.00111923      -0.00174550      -0.00150073      -0.00079952      -0.00069825       0.00006893      -2.78779986
H        5.01257066       4.50886113       4.72827513       0.94767353      -1.71352607       5.07698628       0.00060805      -0.00063165      -0.00099960       0.00061001      -0.00080172       0.00025667      -2.85567550
H        6.70739367       6.48069856       4.58113207      -0.32301708      -0.15071171      -0.51827486       0.00020439       0.00003986       0.00039068       0.00007441       0.00005062       0.00012468      -1.04246392
H        3.27460431       4.33853456       4.48116241       1.02447685      -2.71729550      -4.31032390       0.00127207      -0.00061540      -0.00119288      -0.00095239      -0.00083648      -0.00037092      -2.04793677
H        6.79622858       3.09925439       6.41382939      -0.06281042       0.07629986      -0.01585962       0.00004807       0.00006875       0.00000956      -0.00001244       0.00001415      -0.00005570      -0.01295876
H        4.07410793       4.00110960       5.18390084       3.65117506       1.31457032      -2.00364507       0.00055970       0.00067899       0.00153174      -0.00042606      -0.00031819       0.00131008      -2.82857915
