20
Lattice="10.0 0.0 0.0 0.0 10.0 0.0 0.0 0.0 10.0" Properties=species:S:1:pos:R:3:forces:R:3:stresses:R:6:energies:R:1 energy=-19.03203157030386 stress="0.007903621314200417 0.0004690901419456676 -0.00013958668129113847 0.0004690901419456676 0.004378104463256468 -0.0009546913717327899 -0.00013958668129113847 -0.0009546913717327899 0.0057860392548630575" free_energy=-19.03203157030386 pbc="F F F"
H        5.41635478       6.05379064       7.09494758      -1.12801786      -1.76192412      -2.28449141       0.00143480       0.00063596       0.00086321       0.00069855      -0.00011361      -0.00008027      -1.64959998
H        3.92568059       3.44106987       4.20454584      -1.46449566      -0.61974976       1.72970828       0.00100117       0.00093981       0.00088816      -0.00073643      -0.00013984      -0.00017006      -1.03982795
H        3.97754850       5.89957397       6.86293775       0.53145970      -2.29220196       0.35716649       0.00164736      -0.00079160       0.00009632      -0.00014031       0.00011656       0.00064615      -2.16841837
H        3.18656429       5.16268565       7.23342755       0.85435870       1.61514021      -0.93618939       0.00061566       0.00085624       0.00024762      -0.00035671      -0.00019602       0.00024079      -1.09213149
H        6.46538177       5.67095997       7.17592346      -0.05045524      -0.04933694       0.07827890       0.00017859       0.00001312      -0.00003672      -0.00001362       0.00004724       0.00005890      -1.05144511
H        5.92601345       5.38366854       6.23985818       0.02403542       1.26409569       1.13212801      -0.00029821       0.00046878       0.00060696       0.00050070      -0.00039581      -0.00039616      -1.46331642
H        3.59161027       6.92281625       6.88028665      -0.30056146       1.85336078       0.16312426      -0.00003486      -0.00077551       0.00001128      -0.00008654      -0.00004380       0.00019189      -1.07524022
H        5.62622703       5.58961396       3.21058860       1.09512492      -0.08853941       0.66889023       0.00082409       0.00068430       0.00018348      -0.00023180      -0.00004865       0.00060154      -0.99105965
H        2.78498530       4.88653807       4.06158363       0.24216993      -0.27768717       0.03607093       0.00016045       0.00027481       0.00003279      -0.00004194       0.00001356      -0.00015217      -0.55773639
H        2.87070409       6.09912920       6.66687538       0.97100383      -1.20947489       0.45796338       0.00057300       0.00021613       0.00014160      -0.00022792       0.00011505      -0.00035576      -1.50613964
H        7.29574570       6.91009066       2.84723925       0.77449043       0.98083262      -0.43303660      -0.00021513      -0.00034709       0.00001992       0.00023693       0.00015965      -0.00028408      -0.53043681
H        2.89448066       7.18011397       3.10161322      -0.00177029      -0.03708195       0.01552056       0.00000010       0.00004253       0.00000745      -0.00001780      -0.00000085       0.00000203      -0.00564098
H        4.83985475       5.33025221       6.43146968      -0.87291586       0.52724046       0.91293670       0.00004954       0.00029558       0.00025858       0.00020476       0.00024154       0.00012070      -1.62457945
H        6.64146495       6.14544154       3.29448428      -2.26592544      -1.72810938       0.73226343       0.00046559      -0.00004452       0.00004186       0.00034175       0.00026769       0.00013032      -1.03116785
H        3.58904863       2.85776090       6.19330917       0.13654039       0.00801348      -0.73168589       0.00003700       0.00008876       0.00049438       0.00000931      -0.00007307      -0.00001423      -0.53278702
H        5.27874004       4.66185612       3.78786188       0.15390516       0.80160383      -0.46515510       0.00034667       0.00062549       0.00024471      -0.00031679      -0.00017540       0.00036814      -0.56966533
H        7.00386442       7.16439725       4.86196320      -0.06622612      -0.21107001      -0.32847280       0.00003603       0.00011752       0.00036896       0.00010221       0.00000366       0.00005320      -0.07194735
H        2.82111838       3.77832078       4.24231102       1.63939144      -0.65499429       0.22059907       0.00090912       0.00027401       0.00015687      -0.00014962       0.00010562      -0.00037181      -1.05990461
H        6.90389684       2.83330721       6.40771724      -0.00914899       0.03051507       0.00174279       0.00000401       0.00004051       0.00000127       0.00000266      -0.00000004      -0.00001191      -0.00216747
H        3.85247714       2.65859098       5.10856732      -0.26296301       1.84936775      -1.32736182       0.00016865       0.00076329       0.00115737      -0.00073207      -0.00002306      -0.00010812      -1.00881948
