20
Lattice="10.0 0.0 0.0 0.0 10.0 0.0 0.0 0.0 10.0" Properties=species:S:1:pos:R:3:forces:R:3:stresses:R:6:energies:R:1 energy=-16.917244350669414 stress="0.003006495198439777 -0.005043963163858342 -0.00039501689928065546 -0.005043963163858342 0.0021244953872114718 -0.0018790363723921347 -0.00039501689928065546 -0.0018790363723921347 0.0022552835341746757" free_energy=-16.917244350669414 pbc="F F F"
H        5.76994151       6.28856068       6.96056365       0.03981263      -1.52715020       0.58728490       0.00151307       0.00075028      -0.00013068      -0.00027576       0.00033104      -0.00005205      -1.05032668
H        3.90442827       3.41343268       4.22335088      -1.33753347      -0.86301452       1.78821793       0.00086928       0.00098379       0.00095292      -0.00082651      -0.00011327      -0.00014420      -0.98440053
H        3.85068393       5.92957723       6.91642399      -0.12524610       0.87008570      -0.64034252       0.00169187       0.00134735       0.00008191       0.00002937      -0.00013041      -0.00083444      -1.97684141
H        3.07642480       5.13060181       7.09629828       1.53511905      -2.22486478       0.69222951       0.00026296      -0.00096518      -0.00010576       0.00038673      -0.00026363       0.00059164      -1.06688868
H        6.72024960       5.38169087       7.11087645      -1.90956062       1.44264745      -0.48441954       0.00100024       0.00070162       0.00011329      -0.00011153       0.00023029      -0.00069144      -0.83244286
H        5.90988000       5.39540331       6.32758657      -1.10798212      -1.12945588      -0.18575546       0.00094466      -0.00040745      -0.00005988      -0.00035114      -0.00012255       0.00011554      -1.49473005
H        3.39416652       7.01402443       6.83023692       0.80105231      -2.11243548       0.16787711       0.00026713       0.00125416       0.00001132      -0.00010113       0.00002473      -0.00043061      -1.01616702
H        5.73794915       5.65831647       3.17923769      -8.68770940      -5.82204849       0.78915520      -0.00338085       0.00007969       0.00033772      -0.00063885      -0.00042167      -0.00133831      -0.77481897
H        2.68886164       4.87566553       4.06592303       0.04758152       1.11831177      -0.13592279       0.00012926      -0.00050153       0.00001688       0.00005258       0.00000109      -0.00004249      -0.53967817
H        2.73290799       6.10854269       6.77171090       0.04710854       2.47808533      -0.77795531       0.00042282      -0.00125762      -0.00011937       0.00042775      -0.00009183       0.00034639      -1.47752764
H        7.29990266       6.91158331       2.79741046       1.63531153       2.11105533      -1.05518137      -0.00045877      -0.00079158      -0.00014050       0.00045587       0.00033433      -0.00061482      -0.51135088
H        2.89666687       7.19840696       3.09379243      -0.00298072      -0.03331697       0.01394406       0.00000031       0.00003869       0.00000678      -0.00001619      -0.00000145       0.00000346      -0.00491997
H        4.79874217       5.30921318       6.63734455       0.75746083       2.14919446       0.52554297       0.00256643       0.00091246       0.00022465       0.00029373      -0.00028126       0.00012881      -1.28838099
H        6.67162834       6.13208484       3.21577269       6.08761269       1.80480154       1.62959272      -0.00418891      -0.00170322      -0.00014812       0.00042246       0.00022224      -0.00249049      -0.87786663
H        3.60083933       2.78880210       6.21729968      -0.11864697       0.21494662       0.44830407       0.00000303       0.00006690      -0.00015154      -0.00010206       0.00006243       0.00000939      -0.52904455
H        5.26567016       4.65627488       3.76216727       0.74385601       1.82630856      -1.03969585       0.00047303       0.00114694       0.00039441      -0.00061938      -0.00033996       0.00064516      -0.45014768
H        7.03327599       7.24508240       4.95505301      -0.05440807      -0.14325255      -0.16156216       0.00003129       0.00008862       0.00025869       0.00004849      -0.00001142       0.00004189      -0.04716388
H        2.81680332       3.78781433       4.19856129       1.55226330      -1.93073687       0.40217137       0.00075796      -0.00047729       0.00012064      -0.00004999       0.00010516      -0.00024627      -1.04096547
H        6.90808912       2.81270561       6.40459234      -0.00861311       0.04148105       0.00597797       0.00000360       0.00005340       0.00000232       0.00000768      -0.00000035      -0.00001111      -0.00443231
H        3.81465022       2.59219443       5.14330883       0.10550217       1.72935793      -2.56946283       0.00009808       0.00080447       0.00058963      -0.00091116       0.00007149      -0.00003003      -0.94914996
