20
Lattice="10.0 0.0 0.0 0.0 10.0 0.0 0.0 0.0 10.0" Properties=species:S:1:pos:R:3:forces:R:3:stresses:R:6:energies:R:1 energy=-21.96378035586072 stress="0.0044231590927472485 0.00017140898468693674 -0.00043513508805071647 0.00017140898468693674 0.004566671577652075 0.0003448011787111023 -0.00043513508805071647 0.0003448011787111023 0.008199391591411247" free_energy=-21.96378035586072 pbc="F F F"
H        5.21069920       5.94260411       6.86349791       3.05766780       0.91890489      -0.13213945      -0.00174976      -0.00006315       0.00000518      -0.00009034       0.00045008       0.00002674      -2.05026277
H        3.99643580       3.53355133       4.18397047      -2.21317539       0.45802840       1.21103548       0.00152632       0.00097179       0.00060941      -0.00045198      -0.00025954      -0.00025139      -1.14070421
H        4.14142522       5.90122324       6.96052308      -2.27433653      -2.89081600       0.05634672      -0.00248069      -0.00025938       0.00044075       0.00021361      -0.00039084       0.00025596      -2.46962466
H        3.31212760       5.23582299       7.37750526       1.07805125       1.08328484      -0.83311108       0.00059957       0.00057629       0.00029347      -0.00024562      -0.00032743       0.00032687      -1.10839630
H        6.29943883       5.77630591       7.10122273      -0.59524957      -0.09651210      -0.28001181       0.00041274       0.00005081       0.00010333       0.00005584       0.00014851       0.00002551      -1.04146235
H        5.76609519       5.14482041       6.33681856      -1.26297579      -0.32121381      -0.72439041       0.00105751      -0.00016319       0.00004696      -0.00017999       0.00029935      -0.00002407      -1.51839508
H        3.84022136       6.96439324       6.97334494      -0.39434392      -0.17641703      -0.18716658       0.00050742       0.00016159       0.00006831       0.00008129      -0.00001410       0.00016113      -1.13648192
H        5.58258437       5.58053624       3.26789607       0.38163106       0.85660182      -0.41197147       0.00012990      -0.00021081      -0.00008967       0.00022792       0.00007832       0.00002263      -1.03368102
H        3.07734153       4.85914711       4.05562537       0.54072614      -0.68286672       0.11196963       0.00033545       0.00054453       0.00007679      -0.00008847       0.00003755      -0.00028610      -0.63369384
H        3.09088278       6.14020607       6.74157311      -0.63774697       0.53827097      -0.12581824      -0.00029816       0.00034092       0.00007996       0.00008085      -0.00017195       0.00025261      -1.54289882
H        7.19148822       6.87370893       3.12204942      -0.44595968       0.11264134       2.23615247       0.00010394       0.00001019       0.00141391       0.00006079      -0.00027056       0.00001765      -0.89063548
H        2.89238353       7.13897958       3.11888012       0.00315851      -0.03893246       0.01599670       0.00000029       0.00004438       0.00000749      -0.00001823       0.00000148      -0.00000360      -0.00599279
H        4.64107625       5.34136912       6.08972499       1.01844247       0.80441123       2.04384077       0.00167685       0.00053208       0.00095632       0.00049345      -0.00007229      -0.00030089      -1.62198461
H        6.48894851       6.15015084       3.60531755       0.19620507       0.49985772       0.99787424       0.00015231       0.00040022       0.00031068       0.00032911       0.00020441       0.00024813      -1.51801097
H        3.55456693       3.01753190       6.12899357       0.23937640      -0.04061787      -1.17020327       0.00006673       0.00012809       0.00076045       0.00003141      -0.00012180      -0.00002767      -0.54577794
H        5.28210335       4.68614705       3.84990892      -0.52052080      -0.80260750       0.62532490       0.00041648       0.00002494      -0.00002140       0.00015248      -0.00003014       0.00021747      -0.62648286
H        6.93637890       6.90106466       4.35649372      -0.10237994      -0.98335601      -3.22231549       0.00022831       0.00038201       0.00179435       0.00037870      -0.00007642       0.00024057      -0.87526843
H        2.85041525       3.78980404       4.31667312       2.52677877      -0.90388211       0.25329949       0.00140971       0.00038384       0.00026717      -0.00021176       0.00009855      -0.00049468      -1.09688204
H        6.89410399       2.86688818       6.40990786      -0.01536609       0.03103071      -0.00099565       0.00000867       0.00003534       0.00000004      -0.00000113       0.00000056      -0.00001750      -0.00462860
H        3.84304478       2.78572279       5.04758412      -0.57998280       1.63418969      -0.46371694       0.00031955       0.00067617       0.00107591      -0.00047312      -0.00001888      -0.00021795      -1.10251567
