20
Lattice="10.0 0.0 0.0 0.0 10.0 0.0 0.0 0.0 10.0" Properties=species:S:1:pos:R:3:forces:R:3:stresses:R:6:energies:R:1 energy=-14.844873423878147 stress="0.00855608949993426 0.002137965159212564 -0.00032660907695119965 0.002137965159212564 0.014387465722694504 -0.004035856453392974 -0.00032660907695119965 -0.004035856453392974 0.004787297065846874" free_energy=-14.844873423878147 pbc="F F F"
H        5.86669831       6.48301488       6.93909588      -0.32098940      -1.89999223      -0.82587035       0.00056587       0.00101837       0.00032044       0.00035451       0.00015558       0.00012764      -0.65564871
H        3.88110381       3.35404589       4.19865344      -1.07531562      -0.81587979       1.86781530       0.00070784       0.00091388       0.00102031      -0.00081327      -0.00011952      -0.00011648      -0.95894726
H        3.74708053       5.95644322       6.83162907       2.46983881      -3.47137637       0.11308755       0.00052745       0.00095653       0.00010308      -0.00007700      -0.00035165       0.00009735      -1.94391009
H        3.15487637       4.97386499       7.10096844       0.75561551       3.88028395      -1.21589338       0.00102465       0.00217774       0.00019858      -0.00055842      -0.00015864       0.00007145      -0.93237474
H        7.01349570       5.24520953       7.28832636      -0.87690297       0.43470377      -0.50176109       0.00056916       0.00026771       0.00021255      -0.00010310       0.00031965      -0.00027238      -0.17165990
H        5.71300876       5.52837661       6.30409130       2.31584440       1.55944119       0.60196216      -0.00037400       0.00057286       0.00038871       0.00039619       0.00054451      -0.00023039      -1.09017711
H        3.38564197       7.01046950       6.80091160      -0.81911536      -0.70911464      -0.00308619       0.00034761       0.00039366       0.00000446      -0.00000489      -0.00001044       0.00036266      -1.02871032
H        5.68025134       5.63846684       3.15161482       1.15351201      -1.06433786       1.33224306       0.00137798       0.00116004       0.00035890      -0.00051872      -0.00015769       0.00093326      -0.84067771
H        2.64253279       4.89238739       4.06619867       0.17777574      -0.22477958       0.02186489       0.00011960       0.00022613       0.00002626      -0.00003270       0.00000623      -0.00010979      -0.53715535
H        2.65774936       6.12116989       6.79923781       0.34138632      -0.95666701       0.48330189      -0.00017474       0.00158828       0.00009507      -0.00029634       0.00010546      -0.00009438      -1.33452086
H        7.38244187       7.04465817       2.69898560      -1.15873290      -1.82794539       1.12285476       0.00037695       0.00090564       0.00037321      -0.00051265      -0.00033466       0.00057226      -0.37484858
H        2.89807056       7.20947374       3.08908181      -0.00365263      -0.03312021       0.01396682       0.00000047       0.00003837       0.00000682      -0.00001618      -0.00000178       0.00000423      -0.00489994
H        4.69855989       5.27231467       6.63151395      -3.82147112       1.08858875       1.22383363       0.00077321       0.00069786       0.00002236       0.00023676       0.00003183      -0.00056891      -1.14747727
H        6.78749693       6.06992383       3.26928823      -0.96130008       1.01178880      -1.13736129       0.00148652       0.00112518       0.00039913      -0.00041928      -0.00019737       0.00102116      -0.83601750
H        3.60325999       2.74839990       6.25019942      -0.10493695       0.20820762       0.45833946       0.00000387       0.00008138      -0.00016051      -0.00008167       0.00005397       0.00000528      -0.52808351
H        5.20264786       4.63968493       3.74297817       0.73567954       1.78130266      -1.03972727       0.00047279       0.00112689       0.00039749      -0.00061497      -0.00034107       0.00063778      -0.44291782
H        7.05101376       7.28506694       4.99237379      -0.05502144      -0.12347051      -0.11446470       0.00003464       0.00007650       0.00021535       0.00004512      -0.00002477       0.00003913      -0.04111282
H        2.82241815       3.78879365       4.18226560       1.14690502      -0.51207269       0.20443036       0.00062744       0.00027749       0.00012406      -0.00013279       0.00009808      -0.00031057      -1.04569456
H        6.90883579       2.80045854       6.40125021      -0.00341561       0.03816967       0.00966818       0.00000281       0.00004814       0.00000447       0.00001177       0.00000075      -0.00000483      -0.00378337
H        3.79457786       2.56775462       5.16884674       0.10429674       1.63626986      -2.61520379       0.00008598       0.00073483       0.00067656      -0.00089821       0.00005496      -0.00002651      -0.92625600
