20
Lattice="10.0 0.0 0.0 0.0 10.0 0.0 0.0 0.0 10.0" Properties=species:S:1:pos:R:3:forces:R:3:stresses:R:6:energies:R:1 energy=-69.60350461602661 stress="-3.757029809230203e-06 -4.789156516846746e-06 -2.0764740351984487e-06 -4.789156516846746e-06 -1.3735018240881807e-05 -1.4645724989503774e-06 -2.0764740351984487e-06 -1.4645724989503774e-06 5.405913566128958e-06" free_energy=-69.60350461602661 pbc="F F F"
H        4.85486202       5.98084314       5.50076001       0.00252462      -0.00325655       0.00046802      -0.00076021       0.00060422      -0.00094632      -0.00078844      -0.00077363      -0.00031848      -4.75524321
H        4.62470372       4.92567133       4.03949739      -0.01110906       0.00112049       0.00923279       0.00142700       0.00041348       0.00005117       0.00010618       0.00005235       0.00025912      -3.26025850
H        4.48571689       5.10056844       6.19139922      -0.00125306       0.00304081      -0.00052386       0.00018003      -0.00018905      -0.00032087      -0.00127626       0.00051619       0.00039571      -4.25401374
H        3.40921631       5.28223797       6.39356981       0.00079929       0.00209978      -0.00377882       0.00080619       0.00054117       0.00035177       0.00067936       0.00028750       0.00043920      -2.67728760
H        5.31783429       5.79626830       6.46792443       0.00705539       0.00379224       0.00668966       0.00144487       0.00020923       0.00037090       0.00035790      -0.00067598       0.00003282      -2.74270496
H        5.46575849       5.01299127       5.68859412      -0.01434307      -0.01128706      -0.00752772      -0.00201400      -0.00035178       0.00049187      -0.00027750       0.00002002      -0.00070485      -4.70506591
H        4.20889325       6.13295992       6.39934935      -0.00073287      -0.00344432      -0.00110759       0.00161550      -0.00009656       0.00048198       0.00019066      -0.00006972       0.00047608      -2.73001818
H        5.38223505       5.52725311       4.64321998      -0.00711453       0.01759069      -0.01260352      -0.00094539      -0.00021558       0.00105891       0.00002736       0.00079318      -0.00005988      -4.73522431
H        4.33185050       5.89416474       4.51161028       0.00060633      -0.00172211      -0.00113839       0.00079107       0.00035317       0.00032393      -0.00006886       0.00020596       0.00024425      -3.39384396
H        3.79677452       5.69299043       5.46229258      -0.00426308       0.00456216       0.00089735      -0.00153627       0.00030840      -0.00094846      -0.00014288       0.00107527      -0.00063797      -4.65065202
H        6.36247318       6.01261779       4.47455864       0.00369316       0.00070684       0.00337838       0.00031444       0.00022256       0.00015590      -0.00011225      -0.00019903       0.00012470      -1.72294683
H        2.83622155       5.16537346       5.40320431      -0.00077956       0.00258912       0.00066648       0.00040846      -0.00028103       0.00099943       0.00022859      -0.00016563      -0.00002719      -2.21727318
H        4.56100505       5.00707568       5.12158575       0.01530965      -0.00036248      -0.00160153      -0.00615413      -0.00515314      -0.00616233      -0.00081525      -0.00011028      -0.00058296      -5.59352522
H        6.30127945       5.01320810       4.97413464       0.00844847       0.00456036       0.00486060       0.00047146       0.00048557      -0.00004391       0.00055533       0.00013288       0.00010922      -3.19509860
H        3.71871530       4.53604532       5.60267188      -0.00749885      -0.00266491       0.00576384      -0.00064211       0.00124344       0.00083660       0.00055672      -0.00002952      -0.00006286      -3.72265734
H        5.37060796       4.41477238       4.71195203      -0.00454209      -0.01824743       0.00446346       0.00102246       0.00056833       0.00056193       0.00040534       0.00028001       0.00098257      -3.76840944
H        5.96127494       5.96540481       5.51503569      -0.00205454      -0.00018409      -0.00073282       0.00052973       0.00004525       0.00100918       0.00061438      -0.00009563      -0.00018050      -3.23725350
H        3.61635919       5.01609455       4.58482817       0.00963670      -0.00603944       0.00153347       0.00080851       0.00077977       0.00094837       0.00012924      -0.00084269       0.00000909      -3.71914166
H        6.03528136       4.07849874       5.53718055       0.00170113       0.00428778      -0.00188355       0.00045238       0.00039323       0.00003959      -0.00014973       0.00004262      -0.00011517      -1.76973790
H        4.25069863       4.07493809       4.68414169       0.00391599       0.00285810      -0.00705626       0.00177626       0.00010557       0.00074574      -0.00022133      -0.00044595      -0.00038767      -2.75314855
