20
Lattice="10.0 0.0 0.0 0.0 10.0 0.0 0.0 0.0 10.0" Properties=species:S:1:pos:R:3:forces:R:3:stresses:R:6:energies:R:1 energy=-69.60322911896114 stress="0.00019820194418002145 -1.4502868703369855e-05 3.9718604946761855e-05 -1.4502868703369855e-05 6.115739235490511e-05 -2.2187861784582472e-06 3.9718604946761855e-05 -2.2187861784582472e-06 -6.482684340367634e-05" free_energy=-69.60322911896114 pbc="F F F"
H        4.85455490       5.98094551       5.49958862      -0.00052956      -0.00722025      -0.00825796      -0.00075515       0.00059823      -0.00094639      -0.00079748      -0.00077055      -0.00030981      -4.75489584
H        4.62796340       4.92344278       4.03990096       0.00641818       0.01516984      -0.03970281       0.00142711       0.00040501       0.00002783       0.00011101       0.00006207       0.00026093      -3.25960730
H        4.48329162       5.10049224       6.19074185      -0.02808892       0.10803572       0.02173251       0.00018723      -0.00015262      -0.00031509      -0.00128542       0.00052801       0.00039026      -4.25116430
H        3.40653934       5.28548082       6.38908345      -0.01977431      -0.02530801       0.01568649       0.00080134       0.00052652       0.00034211       0.00068159       0.00029037       0.00042751      -2.67898535
H        5.31436683       5.79774236       6.46861677       0.00577627      -0.00660795       0.00144880       0.00144706       0.00021054       0.00036723       0.00035421      -0.00066945       0.00004425      -2.74345196
H        5.46444485       5.01391827       5.69069879      -0.03068183      -0.03515879      -0.02372988      -0.00202440      -0.00037560       0.00047695      -0.00027928       0.00003246      -0.00069530      -4.70669496
H        4.20654472       6.13382164       6.39610902      -0.00078211      -0.00131308       0.01538203       0.00159054      -0.00009164       0.00047012       0.00019540      -0.00006549       0.00046361      -2.73328893
H        5.38488212       5.52550063       4.64465039      -0.04414407       0.04115595      -0.00998135      -0.00087788      -0.00020872       0.00106880       0.00002649       0.00077697      -0.00004586      -4.73695838
H        4.33448920       5.89305095       4.50898706       0.03188094      -0.01308356      -0.00424619       0.00081135       0.00035419       0.00031919      -0.00006946       0.00021253       0.00024279      -3.39335880
H        3.79594538       5.69481448       5.45814803       0.07693289      -0.08453821      -0.01749016      -0.00151459       0.00034546      -0.00093679      -0.00014581       0.00108149      -0.00065903      -4.64802700
H        6.36672451       6.01014219       4.47880068      -0.03202097      -0.01206633      -0.01109767       0.00033510       0.00022255       0.00014502      -0.00011142      -0.00019858       0.00013490      -1.72282410
H        2.83558156       5.16714849       5.39770337      -0.00093469      -0.00282525      -0.00146850       0.00040944      -0.00028164       0.00099856       0.00023116      -0.00016739      -0.00003113      -2.21706303
H        4.56089803       5.00693048       5.12127498       0.03267531       0.05099158       0.03569607      -0.00610155      -0.00513968      -0.00617323      -0.00082019      -0.00012501      -0.00058656      -5.59518379
H        6.30291551       5.01189497       4.98001738      -0.03265170      -0.00219810      -0.01434435       0.00048805       0.00049657      -0.00004645       0.00056088       0.00014620       0.00011058      -3.19397962
H        3.71683463       4.53720046       5.60077412      -0.00179580       0.00408897      -0.03152565      -0.00064124       0.00125646       0.00083484       0.00054970      -0.00004167      -0.00006453      -3.72158412
H        5.37168037       4.41353839       4.71531942       0.03549881      -0.02241709       0.02808688       0.00103945       0.00056234       0.00056431       0.00041253       0.00028372       0.00098887      -3.76843834
H        5.96088549       5.96584121       5.51728209      -0.00120115      -0.00769875       0.02165170       0.00052690       0.00005105       0.00099987       0.00061624      -0.00009676      -0.00018606      -3.23635294
H        3.61789144       5.01538999       4.58172141       0.02012057       0.00952111       0.01747050       0.00081733       0.00079326       0.00094983       0.00013444      -0.00084365       0.00000896      -3.71858881
H        6.03341987       4.07860215       5.54362779       0.00019183      -0.00617024      -0.00809861       0.00045310       0.00038695       0.00004329      -0.00015170       0.00004661      -0.00011336      -1.77007048
H        4.25190788       4.07407957       4.68446438      -0.01688968      -0.00235756       0.01278817       0.00177902       0.00010191       0.00074518      -0.00021510      -0.00044215      -0.00039552      -2.75271107
