20
Lattice="10.0 0.0 0.0 0.0 10.0 0.0 0.0 0.0 10.0" Properties=species:S:1:pos:R:3:forces:R:3:stresses:R:6:energies:R:1 energy=-66.75853160188521 stress="0.002680482528210804 -0.000746465356078447 0.0012445681359650929 -0.000746465356078447 -3.133366962693088e-05 0.002121697565108307 0.0012445681359650929 0.002121697565108307 0.0004137540672498293" free_energy=-66.75853160188521 pbc="F F F"
H        4.98008807       5.90782395       5.47717120      -0.00806644      -0.29994039      -0.25823094      -0.00085265       0.00043973      -0.00189336      -0.00089925       0.00035707       0.00064980      -4.77894350
H        4.56351925       4.70455676       4.14410352      -1.24476699       1.19201009      -0.34321593      -0.00143512       0.00026846       0.00080165       0.00073440      -0.00070689      -0.00091880      -3.22677062
H        4.58411786       5.26878938       6.31760733      -0.79410577      -0.49724241       0.19985394      -0.00006988      -0.00024371       0.00057369      -0.00001595       0.00016173       0.00046669      -3.88270209
H        3.69539522       5.80591953       6.74141927       0.33686542      -0.48107685       0.06858496       0.00057814       0.00025214       0.00026058       0.00037998      -0.00010320      -0.00000367      -1.77636058
H        5.57209153       5.79218515       6.39552601       0.14301161       0.21548144      -0.26241883       0.00087682       0.00018100       0.00057092       0.00030360      -0.00047303      -0.00016068      -2.76198412
H        5.44068245       4.90753866       5.73904865      -2.70065377      -1.03514974      -0.60531958      -0.00047052      -0.00089405      -0.00037043      -0.00018611       0.00131645      -0.00035620      -4.76215833
H        4.59797047       6.38008190       6.39460325      -0.27478039      -0.55898272      -0.11464764       0.00076693       0.00038745       0.00025094       0.00030957       0.00036388      -0.00003229      -2.70281141
H        5.30897730       5.25628424       4.68656931       0.79088025       0.05177150       0.04760407      -0.00212809      -0.00148462      -0.00138369      -0.00121225      -0.00024154      -0.00030380      -4.73358367
H        4.32090430       5.76782288       4.58641267      -0.50460549       0.02532975      -0.02811757       0.00090310       0.00062882       0.00098560       0.00083382      -0.00065252      -0.00009159      -3.93371667
H        3.90672254       5.84753902       5.66247955       1.06902187       1.07283372      -1.12846131      -0.00107313      -0.00021540      -0.00033032       0.00073076      -0.00057179      -0.00018437      -4.25856346
H        6.29160328       5.52563619       4.28561013       0.73371306       0.21684676      -0.32728580      -0.00004281       0.00014563       0.00021929      -0.00001400      -0.00005838      -0.00002490      -1.73845119
H        3.23605753       5.96514443       4.80743651      -0.31508354      -0.00500855       0.16195930       0.00047402       0.00027961      -0.00043167      -0.00061069      -0.00011365      -0.00025368      -2.25432772
H        4.41618172       4.93811888       5.27141834       2.30066801       1.62111078       1.19958736      -0.00024468      -0.00182594       0.00037784       0.00033442       0.00075533      -0.00001726      -5.54519939
H        6.18019461       4.64446660       4.96574632      -0.23758871      -0.21974481      -0.03440999       0.00068464       0.00051046      -0.00018209       0.00048531       0.00014914       0.00035166      -3.18837676
H        3.32515708       4.96426196       5.35135324      -0.00875110      -0.08347766       0.13705941       0.00044724       0.00086614       0.00052386       0.00004435      -0.00015387      -0.00007098      -2.98594007
H        5.12878746       4.17897200       4.93731661      -0.20040615       0.32456659      -0.27242950       0.00181433       0.00056507      -0.00020615       0.00036792      -0.00003267       0.00093154      -3.65898551
H        6.07598170       5.71264084       5.36585967      -0.23976263       0.18085224       0.31360251       0.00065965       0.00038408       0.00055830       0.00057986      -0.00006424      -0.00030901      -3.24561590
H        3.52977302       5.05310893       4.27222262       0.71509216      -0.76198529      -0.02116129       0.00009544      -0.00088580       0.00029471      -0.00018254       0.00131466       0.00036237      -2.96438557
H        5.85732404       3.88087160       5.71791768       0.20097117       0.02835541       0.32423582       0.00019713       0.00044409      -0.00000008      -0.00010826      -0.00005630      -0.00014001      -1.74593866
H        3.88023216       4.12821482       4.78768900       0.23834742      -0.98654985       0.94321102       0.00149990       0.00016551      -0.00020582       0.00024678       0.00005439      -0.00064129      -2.61371638
