20
Lattice="10.0 0.0 0.0 0.0 10.0 0.0 0.0 0.0 10.0" Properties=species:S:1:pos:R:3:forces:R:3:stresses:R:6:energies:R:1 energy=-69.44422173237662 stress="0.0017636102396121275 -0.0010722041454997726 2.608998471228167e-06 -0.0010722041454997726 0.0022867506790734725 -0.0005248785033054764 2.608998471228167e-06 -0.0005248785033054764 -0.0012710700311957526" free_energy=-69.44422173237662 pbc="F F F"
H        4.96364269       5.96735894       5.44640758      -0.27241261       0.29229170       0.16424669      -0.00063843       0.00041478      -0.00065049      -0.00083320      -0.00078470      -0.00003884      -4.74858722
H        4.63975553       4.82824271       4.07224777      -0.90656186       1.09710964      -1.14313097       0.00157184       0.00050856      -0.00053553       0.00026994      -0.00002751      -0.00045302      -3.21703808
H        4.45179661       5.18408042       6.18585790      -0.16511339       1.16178474       0.45128878       0.00041456       0.00003929      -0.00025906      -0.00142880       0.00049737       0.00044228      -4.21456295
H        3.41941168       5.56263267       6.34228893      -0.24167368      -0.26131871       0.00553729       0.00079846       0.00037076       0.00028283       0.00062683       0.00034113       0.00025983      -2.69840441
H        5.37251745       5.78616674       6.43984322      -0.08690429       0.04095303       0.02523636       0.00155478       0.00016448       0.00029270       0.00032122      -0.00057311       0.00001321      -2.74215518
H        5.41853262       4.95006323       5.71680650      -0.14538671      -0.42552952      -0.00642663      -0.00221928      -0.00081466       0.00002140      -0.00060036       0.00019029      -0.00045509      -4.73203754
H        4.33301074       6.26236560       6.32288533       0.29012766       0.01260650      -0.02300210       0.00141582      -0.00008662       0.00040471       0.00028197      -0.00013033       0.00007755      -2.76175508
H        5.43179784       5.38578726       4.63755600       0.32041920      -1.47552278       0.79406330      -0.00093466       0.00054019       0.00095218      -0.00034637       0.00037173       0.00038349      -4.73149326
H        4.45027344       5.88138249       4.44356606       0.25476518      -0.05554286      -0.01940622       0.00068855       0.00041839       0.00060799       0.00020335       0.00016495       0.00006345      -3.38635901
H        3.87310547       5.85793461       5.39649775       0.44514800      -1.18989194      -0.37920661      -0.00138119       0.00090106      -0.00066928      -0.00049767       0.00091545      -0.00044447      -4.62080767
H        6.48745866       5.68876312       4.46841450      -0.20060653      -0.07838678      -0.11955311       0.00048482       0.00016211       0.00008228      -0.00009495      -0.00020583       0.00013571      -1.71996352
H        2.84317149       5.47572946       5.35281040       0.08775810       0.05482232       0.03094382       0.00044410      -0.00021464       0.00090555       0.00031787      -0.00010068      -0.00012233      -2.22066876
H        4.52477479       5.02784528       5.12705588       0.19992962       0.02053936       0.14306259      -0.00525753      -0.00473419      -0.00634991      -0.00074926      -0.00008893      -0.00056295      -5.62118325
H        6.24438305       4.74781735       5.02181259       0.63635413       0.51566656       0.36466640       0.00016874       0.00067321      -0.00009038       0.00054449       0.00014940      -0.00001146      -3.19068731
H        3.60869553       4.72493983       5.60820474      -0.05836729       0.41014699       0.04667590      -0.00063466       0.00140181       0.00073571       0.00042399       0.00007918       0.00029930      -3.71195634
H        5.24628806       4.26695606       4.83894972      -1.11996597       1.01228271      -1.01886601       0.00136399       0.00111600       0.00028926      -0.00001807       0.00013582       0.00072843      -3.74563734
H        6.05943133       5.79643508       5.49068953      -0.22386383      -0.25987838       0.04708837       0.00056136       0.00040377       0.00097245       0.00077907      -0.00000472      -0.00035961      -3.20849945
H        3.59782294       5.15732312       4.56233655       0.90552309      -0.36402949       0.03588600       0.00130440       0.00055883       0.00108979       0.00035057      -0.00081630      -0.00027431      -3.68246974
H        5.86594137       3.93866778       5.70513600      -0.01452119       0.19400149      -0.11919445       0.00039999       0.00046532       0.00015074      -0.00020467       0.00003399      -0.00011898      -1.75860456
H        4.05995029       4.13948601       4.72814397       0.29535238      -0.70210459       0.72009061       0.00165795      -0.00000169       0.00049599       0.00012918      -0.00014459      -0.00063438      -2.73135106
