20
Lattice="10.0 0.0 0.0 0.0 10.0 0.0 0.0 0.0 10.0" Properties=species:S:1:pos:R:3:forces:R:3:stresses:R:6:energies:R:1 energy=-66.80513144936084 stress="0.0021297464366396217 -0.000708384223927175 0.0014698526202492558 -0.000708384223927175 -0.0025716899843862217 0.0019277860544268533 0.0014698526202492558 0.0019277860544268533 0.00032527379500093233" free_energy=-66.80513144936084 pbc="F F F"
H        4.97552902       5.90765266       5.47254807       0.29841894       0.02771586      -0.15071318      -0.00142075       0.00031617      -0.00170925      -0.00094105       0.00047738       0.00062421      -4.77806246
H        4.56810501       4.69506162       4.14640403      -1.32865406       1.90919622      -0.87265950      -0.00148413       0.00023179       0.00059702       0.00095569      -0.00068872      -0.00099143      -3.21004323
H        4.58024363       5.26677496       6.31646245      -0.86077603      -1.06274885       0.04627523      -0.00008387      -0.00073099       0.00050646      -0.00025737       0.00034287       0.00055247      -3.87693223
H        3.68205073       5.78877573       6.72565642       0.02974631      -0.43277037       0.13167691       0.00046099       0.00022917       0.00027812       0.00039909      -0.00002911       0.00005631      -1.79201120
H        5.56934404       5.79498544       6.39263650      -0.05968679       0.08706361      -0.15557167       0.00086646       0.00016093       0.00050257       0.00027933      -0.00035743      -0.00007015      -2.77096731
H        5.43464667       4.90973996       5.73856728      -1.85327136      -0.72063898      -0.42818428      -0.00061027      -0.00105655      -0.00056309      -0.00042384       0.00119766      -0.00037003      -4.76638063
H        4.58955744       6.36458210       6.39659832      -0.23830032       0.62315804       0.04603305       0.00063667      -0.00020471       0.00021455       0.00025620       0.00030570      -0.00004262      -2.70697951
H        5.31088011       5.25740376       4.68334052       0.52174456       0.89190943      -0.37110338      -0.00181800      -0.00173766      -0.00127419      -0.00117259      -0.00040674      -0.00021428      -4.73642365
H        4.31846378       5.76959699       4.57591238      -0.53420163      -0.42346873       0.17344346       0.00129875       0.00085029       0.00107011       0.00083191      -0.00057644      -0.00017274      -3.91833309
H        3.90739322       5.85101610       5.65111828       0.53786502       1.24419483      -0.43913673      -0.00156607      -0.00042211      -0.00048945       0.00055219      -0.00049466      -0.00021083      -4.25118455
H        6.30005368       5.54128942       4.28968899       0.20662068       0.10412071      -0.06686779       0.00020800       0.00015514       0.00027990      -0.00003544      -0.00016921       0.00003659      -1.73944671
H        3.22595799       5.95324574       4.80754296      -0.17196470      -0.19468553      -0.23930724       0.00058614       0.00033618      -0.00048508      -0.00057875      -0.00025902      -0.00029928      -2.25167972
H        4.41366833       4.94572166       5.27078616       2.27244400       0.87690682       0.18846091      -0.00035034      -0.00209002       0.00032385       0.00018460       0.00074812       0.00007365      -5.56429396
H        6.18335993       4.65838994       4.96642438       0.06713677      -0.33782129       0.03207973       0.00055914       0.00031152      -0.00021594       0.00059380       0.00006355       0.00040499      -3.18911674
H        3.32466895       4.96038871       5.36594579       0.11439502      -0.33412264      -0.27545973       0.00044587       0.00097593       0.00083684       0.00013943      -0.00018515      -0.00018128      -2.98236746
H        5.13376572       4.18985729       4.94407897       0.20530816      -1.05409581       0.19362848       0.00187991       0.00014936      -0.00036965       0.00024152      -0.00002350       0.00079878      -3.67224390
H        6.06670852       5.72076945       5.36831597       0.25941078       0.10353813       0.11651124       0.00041863       0.00035377       0.00043727       0.00051180      -0.00001392      -0.00023373      -3.25865567
H        3.53071957       5.03754006       4.28133397       0.90768632      -0.21723697       0.37654586       0.00026998      -0.00090914       0.00050736      -0.00002362       0.00127917       0.00046215      -2.98665511
H        5.88348542       3.89575323       5.72275477      -0.36616753       0.10461571      -0.02926023       0.00036088       0.00043391       0.00014244      -0.00011433       0.00016582      -0.00024006      -1.74585591
H        3.89315985       4.12143290       4.79139468      -0.00775416      -1.19483019       1.72360888       0.00147177       0.00007533      -0.00026454       0.00052922       0.00009351      -0.00069109      -2.60749841
