20
Lattice="10.0 0.0 0.0 0.0 10.0 0.0 0.0 0.0 10.0" Properties=species:S:1:pos:R:3:forces:R:3:stresses:R:6:energies:R:1 energy=-69.60347973415406 stress="1.538145268511214e-05 -8.827099116229857e-06 -1.3031763472489013e-05 -8.827099116229857e-06 -1.2502205518446086e-05 -1.563536680020393e-05 -1.3031763472489013e-05 -1.563536680020393e-05 2.72542099184274e-05" free_energy=-69.60347973415406 pbc="F F F"
H        4.85472831       5.98072324       5.50077772      -0.00461464       0.01215262       0.01028033      -0.00076202       0.00059804      -0.00094035      -0.00078863      -0.00077404      -0.00031924      -4.75551375
H        4.62514806       4.92537728       4.03950862      -0.02344447       0.00375256       0.01254422       0.00142831       0.00041571       0.00005205       0.00010702       0.00004892       0.00026289      -3.26008149
H        4.48573159       5.10062389       6.19137912      -0.01191419       0.00725894      -0.00327194       0.00018163      -0.00018649      -0.00031812      -0.00127574       0.00052058       0.00039625      -4.25395973
H        3.40917676       5.28242388       6.39328685      -0.00556278      -0.00139238      -0.00489196       0.00080312       0.00053573       0.00035217       0.00067649       0.00028622       0.00043575      -2.67808988
H        5.31775809       5.79650908       6.46799908      -0.00801132       0.00507694       0.00256510       0.00145350       0.00021100       0.00037199       0.00035771      -0.00067536       0.00003170      -2.74222148
H        5.46575744       5.01320966       5.68869402      -0.02585062      -0.02211169      -0.00441555      -0.00201786      -0.00035724       0.00048886      -0.00027548       0.00002656      -0.00070476      -4.70525332
H        4.20820563       6.13286123       6.39922679       0.02913400       0.00140739      -0.00856285       0.00162030      -0.00009966       0.00048530       0.00019115      -0.00007272       0.00046959      -2.73019481
H        5.38240038       5.52731031       4.64342793      -0.01874892      -0.00036034      -0.02389407      -0.00094606      -0.00021540       0.00105335       0.00002485       0.00079098      -0.00005918      -4.73549377
H        4.33204644       5.89396710       4.51128894      -0.00025427      -0.00702114       0.00705172       0.00079195       0.00035601       0.00032787      -0.00006912       0.00020800       0.00024608      -3.39376526
H        3.79668180       5.69309481       5.46186586      -0.00361204      -0.00991646       0.00533325      -0.00153819       0.00031206      -0.00094368      -0.00014563       0.00107414      -0.00064187      -4.65027237
H        6.36259873       6.01252153       4.47452653       0.00594703       0.00019947       0.00897698       0.00031263       0.00022320       0.00015896      -0.00011268      -0.00019958       0.00012390      -1.72290888
H        2.83618484       5.16544789       5.40297657      -0.00146358       0.00002431      -0.00440211       0.00040799      -0.00028156       0.00100046       0.00022927      -0.00016744      -0.00002838      -2.21717756
H        4.56099825       5.00698769       5.12155972       0.02690410       0.00420752       0.00036994      -0.00614459      -0.00515231      -0.00615713      -0.00081812      -0.00011233      -0.00058493      -5.59392793
H        6.30144669       5.01333315       4.97463798       0.00995675      -0.00259376      -0.00338289       0.00047068       0.00048993      -0.00004523       0.00055186       0.00013679       0.00011042      -3.19503113
H        3.71861251       4.53611285       5.60266713      -0.00060672      -0.00216947       0.00103983      -0.00064103       0.00124436       0.00083600       0.00055523      -0.00002858      -0.00006088      -3.72258656
H        5.37083072       4.41481802       4.71209934      -0.00314046      -0.01761095       0.01065292       0.00102285       0.00056915       0.00055883       0.00040894       0.00027604       0.00098580      -3.76827640
H        5.96115294       5.96560700       5.51502567       0.00714958       0.01220306       0.00394195       0.00052786       0.00004085       0.00100789       0.00061179      -0.00009900      -0.00018253      -3.23724941
H        3.61647718       5.01580793       4.58461167       0.01231921       0.00087017       0.00416774       0.00081328       0.00078171       0.00095141       0.00012994      -0.00084621       0.00001034      -3.71885210
H        6.03502700       4.07851236       5.53759903       0.00587353       0.00956500      -0.00219128       0.00045222       0.00039603       0.00003931      -0.00015107       0.00004093      -0.00011387      -1.76979374
H        4.25079830       4.07472868       4.68435197       0.00993981       0.00645820      -0.01191133       0.00177880       0.00010638       0.00074731      -0.00022344      -0.00044694      -0.00038591      -2.75283018
