20
Lattice="10.0 0.0 0.0 0.0 10.0 0.0 0.0 0.0 10.0" Properties=species:S:1:pos:R:3:forces:R:3:stresses:R:6:energies:R:1 energy=438.90124945326187 stress="-2.0313274154184127 2.2523933915157883 0.782431257970842 2.2523933915157883 -3.1699994610449895 -0.9218643837507347 0.782431257970842 -0.9218643837507347 -0.6071082353890437" free_energy=438.90124945326187 pbc="F F F"
H        5.89540278       6.66433653       7.01685326       0.39560712       0.60919582       0.44921960       0.00017969      -0.00016377      -0.00006303      -0.00021646      -0.00006940      -0.00018642      -0.57682288
H        3.85522969       3.21637967       4.14828067       0.42407549       1.04922824      -1.40654439      -0.00012246      -0.00030370      -0.00054954       0.00044481       0.00001251       0.00006583      -1.01336066
H        3.50408803       5.57846315       6.69092562    4519.82085878   -5514.82659404   -2249.54267553      -0.91784941      -1.41207476      -0.23095397      -0.54281506       0.45926769       1.10634458     200.87067420
H        2.85520277       5.13300195       7.16873566     -72.47235879     -62.16037341      54.98956258      -0.02262648      -0.01747786      -0.01268364       0.01336033       0.01690202      -0.01709505       1.84655295
H        7.15759581       5.17416628       7.36836897      -0.28441999       0.16785015      -0.12551504       0.00022235       0.00015704       0.00004777      -0.00003460       0.00009527      -0.00013263      -0.06121134
H        5.43715259       5.80680200       6.49147536     116.57596673      77.03647151      36.57487530      -0.04198088      -0.01905188      -0.00431821      -0.00915498      -0.01350438      -0.02842174       2.94926289
H        3.55093676       6.87961944       6.86476323      52.52426477      90.31207277      -3.27309711      -0.01157474      -0.03527613       0.00001118       0.00137888       0.00062139      -0.02089212       1.97697333
H        5.18963102       5.41375271       3.19149516    -245.27626646     389.41155328    -304.43094816      -0.04441620      -0.11233331      -0.06872715       0.08788765      -0.05542642       0.07096908      15.44873669
H        2.56709518       5.05799087       4.05507286       0.38499357      -1.57049111       0.14114234       0.00010070       0.00119563       0.00004364      -0.00012917       0.00002025      -0.00024677      -0.23795978
H        3.10082545       6.08280864       6.89020694   -4496.93070798    5485.97377425    2196.84229245      -0.90901510      -1.44719380      -0.21967869      -0.55105418       0.44440177       1.09898520     201.55911218
H        7.43287476       7.12736410       2.63171083      -0.70918079      -1.58793003       1.03096123       0.00017576       0.00085713       0.00038301      -0.00052453      -0.00024144       0.00037965      -0.28409381
H        2.89950100       7.22324683       3.08328134       0.00308988      -0.05543395       0.02169965       0.00001305       0.00005856       0.00001033      -0.00002341      -0.00000297      -0.00000150      -0.00823894
H        4.71461552       5.32648610       6.26337307    -119.58933715     -77.17471606     -36.02170153      -0.04066420      -0.01840546      -0.00393796      -0.00867451      -0.01390970      -0.02846805       3.08322218
H        6.96470093       6.05440361       3.29713107       0.25183112       1.39024276      -0.86039543       0.00052093       0.00102167       0.00041246      -0.00049455      -0.00024556       0.00057235      -0.37325532
H        3.57537626       2.72551410       6.47750910       0.18771533      -0.06609826      -1.21868533       0.00003421       0.00009411       0.00093426       0.00008992      -0.00014157      -0.00002246      -0.17661713
H        5.55372213       4.83636352       3.64302040     245.65236024    -389.18719773     304.43543550      -0.04452191      -0.11226440      -0.06870161       0.08786094      -0.05547462       0.07102109      15.44513790
H        7.06928770       7.32620619       5.02966594      -0.03881292      -0.09734654      -0.07861363       0.00002882       0.00005726       0.00018480       0.00003647      -0.00004001       0.00002264      -0.03450580
H        2.83873951       3.67482943       4.18587772      -0.37569071       1.36571923       0.14142644      -0.00000156       0.00122807       0.00014245      -0.00025706       0.00015805      -0.00029465      -0.78869377
H        6.90888918       2.78713357       6.39696376       0.00293645       0.02818342       0.01146927       0.00000037       0.00003364       0.00000557       0.00001369       0.00000143       0.00000350      -0.00387785
H        3.82089453       2.54110905       5.01279995      -0.54692470      -0.61811029       2.32009179       0.00016965      -0.00015751       0.00033010       0.00044146       0.00000695      -0.00020913      -0.71978557
