20
Lattice="10.0 0.0 0.0 0.0 10.0 0.0 0.0 0.0 10.0" Properties=species:S:1:pos:R:3:forces:R:3:stresses:R:6:energies:R:1 energy=-69.60319482023334 stress="0.00022598289381308486 2.028746773380051e-06 5.175437204535945e-05 2.028746773380051e-06 6.773402301425044e-05 -8.760736196457946e-06 5.175437204535945e-05 -8.760736196457946e-06 -7.34983143834303e-05" free_energy=-69.60319482023334 pbc="F F F"
H        4.85437685       5.98095066       5.49948417      -0.00680968      -0.00069570       0.00256959      -0.00075419       0.00059554      -0.00094705      -0.00080138      -0.00076871      -0.00030993      -4.75459396
H        4.62816788       4.92330249       4.03994230       0.01286979       0.01698671      -0.04294835       0.00142550       0.00040397       0.00002681       0.00011197       0.00006375       0.00026441      -3.25957567
H        4.48314280       5.10030365       6.19072159      -0.02752410       0.11802801       0.02078964       0.00019225      -0.00014597      -0.00031444      -0.00128470       0.00052845       0.00039073      -4.25093464
H        3.40629047       5.28505355       6.38877357      -0.02044582      -0.01988283       0.01420106       0.00080307       0.00052676       0.00034352       0.00068095       0.00029217       0.00042931      -2.67875923
H        5.31395536       5.79791759       6.46866631       0.00557185      -0.00807509       0.00498408       0.00144506       0.00021009       0.00036522       0.00035378      -0.00066782       0.00004607      -2.74376580
H        5.46453279       5.01408044       5.69092287      -0.04827308      -0.04212556      -0.02703696      -0.00202115      -0.00037744       0.00047878      -0.00027979       0.00003478      -0.00069775      -4.70641693
H        4.20625474       6.13369602       6.39598046      -0.00466467      -0.01009660       0.01295760       0.00158950      -0.00008675       0.00047039       0.00019628      -0.00006652       0.00046477      -2.73337696
H        5.38503741       5.52570995       4.64478329      -0.06180425       0.03462973      -0.01545025      -0.00087288      -0.00020856       0.00107000       0.00002547       0.00077879      -0.00004249      -4.73672708
H        4.33441927       5.89285264       4.50879943       0.04124620      -0.00945692       0.00638856       0.00081333       0.00035174       0.00032223      -0.00007170       0.00021302       0.00024007      -3.39341855
H        3.79578792       5.69465657       5.45799826       0.08219678      -0.09576696      -0.02301161      -0.00150574       0.00034945      -0.00093458      -0.00014590       0.00107924      -0.00066001      -4.64816864
H        6.36673813       6.01070855       4.47928321      -0.03058989      -0.01402196      -0.01013288       0.00033438       0.00022381       0.00014508      -0.00011209      -0.00019845       0.00013462      -1.72280669
H        2.83547384       5.16672477       5.39712294       0.00772644       0.00228914       0.00624122       0.00041330      -0.00028040       0.00099944       0.00023108      -0.00016504      -0.00002876      -2.21703464
H        4.56105285       5.00687072       5.12130212       0.02393122       0.05220805       0.03665762      -0.00609216      -0.00513550      -0.00617169      -0.00082304      -0.00012715      -0.00058537      -5.59566479
H        6.30305888       5.01234861       4.98040977      -0.02606907      -0.00212356      -0.02046139       0.00048558       0.00049662      -0.00004793       0.00056073       0.00014758       0.00011181      -3.19392505
H        3.71680462       4.53697304       5.60050168       0.00870264       0.00708487      -0.02764748      -0.00063783       0.00125643       0.00083034       0.00054874      -0.00004232      -0.00006140      -3.72179360
H        5.37199447       4.41378336       4.71536914       0.03978069      -0.02792758       0.02875263       0.00103756       0.00056048       0.00056286       0.00041438       0.00028298       0.00099261      -3.76815257
H        5.96068756       5.96611959       5.51766248       0.00280314      -0.00112980       0.01791538       0.00052532       0.00004777       0.00099845       0.00061687      -0.00009552      -0.00018701      -3.23636673
H        3.61815121       5.01516469       4.58159535       0.01061136       0.00519880       0.00744036       0.00081189       0.00078905       0.00094322       0.00013522      -0.00084228       0.00000727      -3.71887181
H        6.03364177       4.07885373       5.54366869       0.00147419      -0.00765561      -0.00413538       0.00045260       0.00038661       0.00004168      -0.00015079       0.00004576      -0.00011344      -1.77007609
H        4.25219282       4.07390697       4.68452293      -0.01073373       0.00253284       0.01192658       0.00178060       0.00010402       0.00074417      -0.00021484      -0.00044098      -0.00039348      -2.75276538
