20
Lattice="10.0 0.0 0.0 0.0 10.0 0.0 0.0 0.0 10.0" Properties=species:S:1:pos:R:3:forces:R:3:stresses:R:6:energies:R:1 energy=-21.8613932031489 stress="-0.08296888666979169 0.020747015952538167 -0.0039012967142268867 0.020747015952538167 0.005191354912665819 -0.002736915300820871 -0.0039012967142268867 -0.002736915300820871 0.00971821855229197" free_energy=-21.8613932031489 pbc="F F F"
H        5.08922386       6.18067090       6.56536969       2.00984409      -1.67433802      -1.19932429      -0.00080362      -0.00005769      -0.00001851       0.00009374       0.00025540       0.00051449      -2.52286436
H        4.29738113       3.68991344       4.10601692      -2.02817988       2.06414340       1.56074135       0.00106539       0.00166431       0.00068382      -0.00029273      -0.00052800      -0.00006697      -1.97763790
H        4.23537862       5.66052568       7.05331456       1.21006162      -3.84098060       0.26077763       0.00054155      -0.00067987       0.00081371       0.00054475      -0.00101137       0.00041516      -2.56572672
H        3.26522567       5.17557079       7.50531370       1.84491235       1.69646671      -1.77303585       0.00097036       0.00068884       0.00065159      -0.00053148      -0.00051264       0.00048936      -1.04529874
H        6.01485054       5.90516353       7.12920724      -0.07264634       0.72954616       0.94559385       0.00046107      -0.00024321      -0.00034657      -0.00029044      -0.00008987      -0.00007566      -1.10842474
H        5.65788190       5.23141523       6.33350062       0.11992401      -0.41095973      -0.25235093      -0.00024063       0.00002317      -0.00023278      -0.00020633      -0.00067169      -0.00036855      -1.60945811
H        4.16788533       6.72317151       6.78097491      -3.47278839       0.72084257      -0.28525785       0.00002876      -0.00012644       0.00005140       0.00028880       0.00018640       0.00105520      -1.58998579
H        5.28841028       5.48349860       3.38443049      -1.57759795      -1.70840048       1.09817864       0.00047868       0.00073352       0.00049458      -0.00064866      -0.00058669       0.00048229      -1.15696167
H        4.01015745       4.82575144       4.10737737     -97.37702272      18.71453632       0.66994381      -0.04417512      -0.00062603       0.00035222      -0.00021609       0.00025500       0.00879091       1.05235490
H        3.25106719       5.97865251       6.68865483       0.77618208       0.80549802      -0.01379469       0.00058579       0.00081862       0.00032196      -0.00003783      -0.00042945       0.00068905      -1.57967730
H        6.81878805       6.53984622       3.12532476      -0.36739343      -0.02153732       2.43686428       0.00024045       0.00017128       0.00138013       0.00010124      -0.00006964       0.00018775      -0.98233969
H        2.89781506       7.05991658       3.15112454       0.02251168      -0.02860189       0.00996815       0.00002039       0.00002928       0.00000433      -0.00001074       0.00000631      -0.00002110      -0.00354235
H        4.61194156       5.32129581       6.00430559      -2.50645263       1.58636147       1.69466414       0.00004783       0.00087307       0.00152762       0.00083510      -0.00065027      -0.00006935      -1.78658220
H        6.19046341       5.93836747       3.84419238       0.33379275      -0.00962824       0.08262951      -0.00010050       0.00005402       0.00003294      -0.00024000      -0.00032367       0.00000520      -1.54810412
H        3.44677015       3.45778059       5.96784146       0.03815435       0.48952341      -0.42949876       0.00008411       0.00026379       0.00051520      -0.00016164      -0.00000348       0.00007682      -0.63693252
H        4.91094227       4.64472753       4.09948740      98.87169072     -19.13374850      -1.59015640      -0.04380887      -0.00073318       0.00061793      -0.00053568       0.00006779       0.00966834       1.06851144
H        6.84550699       6.71188762       4.31258972       0.06136159      -0.15127009      -2.05779202       0.00000947      -0.00001354       0.00130936       0.00014446      -0.00000349      -0.00001380      -0.95807895
H        3.24014829       4.06883478       4.37601510       2.33530824      -2.72453714       1.37229075       0.00112785       0.00093823       0.00076567      -0.00056217       0.00019827      -0.00078892      -1.49374562
H        6.86694650       2.93308549       6.40989703      -0.01388718       0.02639835      -0.00087748       0.00000840       0.00003034       0.00000003      -0.00000101       0.00000053      -0.00001596      -0.00374223
H        3.78497735       3.09990201       4.96257261      -0.20777497       2.87068559      -2.52956383       0.00048977       0.00138286       0.00079357      -0.00101022       0.00000926      -0.00020726      -1.41315654
