20
Lattice="10.0 0.0 0.0 0.0 10.0 0.0 0.0 0.0 10.0" Properties=species:S:1:pos:R:3:forces:R:3:stresses:R:6:energies:R:1 energy=-64.09893595965008 stress="-0.0012682680964629762 -0.0010780336437717932 -7.093717620546587e-05 -0.0010780336437717932 -0.004118156837743923 0.00405982101318593 -7.093717620546587e-05 0.00405982101318593 0.0044188173792787154" free_energy=-64.09893595965008 pbc="F F F"
H        4.92974167       6.00223797       5.50233906       0.36438638      -2.22115417      -0.57294266       0.00054990       0.00118356       0.00146279      -0.00021727       0.00015913      -0.00047130      -4.53256887
H        4.70580370       4.53905294       4.21129758       0.70810604       0.38504260      -5.07849408      -0.00198595      -0.00102727      -0.00164987       0.00109143      -0.00133270      -0.00035989      -3.00782278
H        4.62717348       5.38662099       6.43913580      -2.36863831       1.57419360       1.24326845      -0.00093378      -0.00079961      -0.00016054      -0.00158888       0.00082687       0.00021116      -3.60455963
H        3.62909720       5.74783464       6.75037819       0.56068488       0.60405157      -0.87957584       0.00042650       0.00036404       0.00070750       0.00015127      -0.00036796       0.00036395      -1.73229106
H        5.54412722       6.01090203       6.41790071      -0.70661483      -0.99850892      -1.69545149       0.00126144       0.00114743       0.00093678       0.00090105      -0.00036787      -0.00049506      -2.68324564
H        5.45604322       4.99503362       5.87270683       0.91182490       0.50993116      -0.35715266      -0.00090374       0.00097194      -0.00045277      -0.00012869       0.00135540      -0.00056127      -4.64315216
H        4.45220085       6.47011163       6.41277824       2.01557421      -0.12155950       0.16457997       0.00138211      -0.00002272       0.00029855       0.00019660      -0.00059228      -0.00040366      -2.61852886
H        5.29308844       5.22915522       4.79850630      -0.47630366       5.77402281      -0.23432175      -0.00350483      -0.00331965      -0.00152029       0.00031182      -0.00030431      -0.00041316      -4.72330381
H        4.29110160       5.53213102       4.47291541      -2.67910062       1.63336494       2.29195728       0.00102130       0.00101764       0.00214735       0.00072610       0.00063293       0.00050256      -3.98917563
H        3.84013440       5.93242631       5.66960277       0.88279765      -1.28044976      -1.26796048       0.00044009      -0.00008209       0.00153890      -0.00030417       0.00006422      -0.00094623      -3.46750108
H        6.24826315       5.43323986       4.31738473       0.84720472       1.39219829       0.18096037      -0.00012802      -0.00000697       0.00072789       0.00058315       0.00000332      -0.00005818      -1.73476928
H        3.21261808       5.69814400       4.06835354       1.04656387       2.05653131       2.49641092       0.00100653      -0.00110929       0.00116047      -0.00049383       0.00083568       0.00028389      -1.64632169
H        4.42917525       5.02684191       5.44366590      -0.07070066      -2.03624195      -1.30640822      -0.00183273      -0.00208525      -0.00120295      -0.00012204      -0.00053974      -0.00008772      -5.12248795
H        6.16159671       4.64242326       5.08286778       0.48011675      -0.39469398       2.20173216       0.00017111       0.00074427      -0.00007540       0.00094230      -0.00023239       0.00039096      -3.14974620
H        3.42073453       5.12688215       5.03840328      -2.04998015       0.83490542      -2.10491245      -0.00019930      -0.00047628       0.00086720      -0.00007659      -0.00031252       0.00008209      -3.30241079
H        5.11261150       4.22691271       5.14552969       1.06988210      -5.74502818       5.15198510       0.00098101      -0.00166684      -0.00215392       0.00105343      -0.00038518       0.00029260      -3.72380996
H        6.03600519       5.79141819       5.39764990      -0.08036647      -0.95101266      -0.91905591       0.00089947       0.00114738       0.00132090       0.00094727      -0.00053146      -0.00055246      -3.17769699
H        3.65421201       4.71302353       4.01033656      -0.71909082      -1.30357956       0.25844026      -0.00125488      -0.00136078       0.00060819       0.00056625       0.00014589       0.00127766      -2.63033326
H        5.88109552       3.94937069       5.92744778      -1.06062034       1.77775298      -1.06459776       0.00062762       0.00111379       0.00056289      -0.00041262       0.00027230      -0.00047240      -1.73182952
H        3.96693789       4.17621506       4.92831084       1.32427435      -1.48976603       1.49153879       0.00070787       0.00014853      -0.00070486      -0.00006677       0.00059973       0.00033841      -2.87738082
