20
Lattice="10.0 0.0 0.0 0.0 10.0 0.0 0.0 0.0 10.0" Properties=species:S:1:pos:R:3:forces:R:3:stresses:R:6:energies:R:1 energy=-67.38870944070138 stress="0.00767082084143434 -0.004057573205993624 0.00038660933241279276 -0.004057573205993624 0.0021451378030569066 0.0008143681387832661 0.00038660933241279276 0.0008143681387832661 -0.0006124091982789551" free_energy=-67.38870944070138 pbc="F F F"
H        5.01285166       5.94208312       5.43688516      -0.38246658       0.37883294       0.40579507      -0.00124887       0.00063651       0.00031520      -0.00048085      -0.00013223       0.00037528      -4.69885016
H        4.62679345       4.67605119       4.15531021      -3.66592815       2.56146723      -1.14067346       0.00042639       0.00099112      -0.00017894       0.00072414      -0.00091242      -0.00040019      -3.23281354
H        4.48822230       5.28023267       6.23033239      -2.22710689       0.83785004       1.79622856       0.00026619      -0.00053491      -0.00082181      -0.00133045       0.00096361       0.00090447      -3.99657638
H        3.49606724       5.71178303       6.46044744       0.50556739      -0.45472545      -1.31041249       0.00081405       0.00082326       0.00097781       0.00087534       0.00012148       0.00056211      -2.17047584
H        5.47120538       5.79597190       6.41854427      -0.47036394       0.00313390      -0.14805775       0.00142941       0.00041227       0.00035902       0.00045022      -0.00045793      -0.00026355      -2.75385814
H        5.38626675       4.91053541       5.74997675       0.80583497       0.30007992       0.78838294      -0.00214407      -0.00131274      -0.00082945      -0.00080063       0.00064022      -0.00027839      -4.74714626
H        4.46759107       6.36837220       6.35998622       1.19989807      -0.75780624      -0.34132825       0.00172820       0.00015084       0.00058962       0.00030755      -0.00070061      -0.00022003      -2.65802725
H        5.38841359       5.26197558       4.68086507      -0.88309658       0.26418851      -0.92012709      -0.00051381      -0.00030990      -0.00037268      -0.00086142       0.00037416      -0.00034963      -4.71973112
H        4.35591315       5.79746011       4.46896096       1.46666837       0.02388699      -0.10542337       0.00319554       0.00072462       0.00062519       0.00105656       0.00026795      -0.00083473      -3.59219975
H        3.93817596       5.95815621       5.48726409       0.05618238      -0.09215415      -0.08431635      -0.00287586      -0.00009005      -0.00145293       0.00017683      -0.00023961      -0.00094253      -4.29507617
H        6.43205483       5.49429754       4.40057470      -0.09292967      -0.11855980       0.47967444       0.00032436       0.00025036       0.00044429      -0.00008553      -0.00029414       0.00007553      -1.72706120
H        3.13337453       5.94076956       4.76358847       0.25560430      -0.17602447       0.46879874       0.00102632       0.00003996       0.00020187      -0.00124410      -0.00047263      -0.00027344      -1.99675990
H        4.45225187       5.01572748       5.19767969      -0.86705355      -1.64933438      -2.31088993      -0.00139810      -0.00305810      -0.00397372       0.00016931       0.00041154      -0.00106942      -5.67042739
H        6.19565131       4.61236962       5.05448796       0.76078536       0.68758745       0.31407817       0.00013985       0.00049425      -0.00000621       0.00044883       0.00000533      -0.00003107      -3.20469595
H        3.40306832       4.99997575       5.50324505       0.82385573       0.74414420       1.13565740       0.00106585       0.00179580       0.00202852       0.00059557       0.00058473      -0.00060828      -3.30960113
H        5.16887038       4.18267892       4.96049312      -1.75802969      -0.43054264       0.47109486       0.00127674       0.00073824      -0.00102570       0.00014115      -0.00074884       0.00008385      -3.74395795
H        6.09598198       5.68108077       5.45563074      -0.00325453       0.02367319      -0.28441540       0.00053196       0.00041271       0.00084411       0.00066838      -0.00000562      -0.00033864      -3.23776718
H        3.56923036       5.01371206       4.40722147       4.35715328      -2.49767525       0.70945332       0.00137745      -0.00085150       0.00075556       0.00005356       0.00127437       0.00043133      -3.25461583
H        5.81718878       3.89542180       5.82753852      -0.17625805       0.09833429      -0.21971088       0.00036346       0.00041261       0.00024444      -0.00019078       0.00014011      -0.00012339      -1.75431358
H        3.99258866       4.09132283       4.88847867       0.29493778       0.25364372       0.29619148       0.00188575       0.00041980       0.00066339       0.00014070      -0.00043285      -0.00075683      -2.62475474
