20
Lattice="10.0 0.0 0.0 0.0 10.0 0.0 0.0 0.0 10.0" Properties=species:S:1:pos:R:3:forces:R:3:stresses:R:6:energies:R:1 energy=-12.197522394367851 stress="-0.012887000412063204 -0.00886927866723166 -0.001294347932713757 -0.00886927866723166 -0.023446019111460777 -0.02495091273732443 -0.001294347932713757 -0.02495091273732443 -0.008266361366101448" free_energy=-12.197522394367851 pbc="F F F"
H        5.83172114       6.34867118       6.85290481       2.07563569      38.72343266      26.96221847       0.00070982      -0.01521040      -0.00715880      -0.01077812      -0.00052614      -0.00080160       0.41706979
H        3.89753541       3.38877534       4.21166747      -1.29369515      -0.93077703       1.76958842       0.00080530       0.00096726       0.00092697      -0.00081865      -0.00011024      -0.00013621      -0.95968481
H        3.71566004       5.95626476       6.76884840      11.20371951      -1.56671670      -0.24955910      -0.00376493       0.00148079       0.00002515      -0.00003861       0.00008409      -0.00003266      -1.64631868
H        3.13719887       5.05310367       7.12671114      -0.09312885       2.60510736      -0.91791687       0.00069664       0.00149542       0.00015916      -0.00041755      -0.00001320      -0.00031654      -1.02491212
H        6.99589627       5.25401778       7.27913492      -1.18647422       0.55756754      -0.71903817       0.00074419       0.00028994       0.00029795      -0.00015634       0.00043526      -0.00034261      -0.22441047
H        5.78393322       5.55260764       6.31533943      -2.16730241     -40.10063435     -26.26037244       0.00066227      -0.01577290      -0.00690834      -0.01081954      -0.00043282      -0.00100954       0.02787239
H        3.29458475       7.05969249       6.80078730       1.64543705      -0.71493782      -0.03811377      -0.00004475       0.00060461       0.00000554       0.00000997      -0.00001412      -0.00083109      -0.98749570
H        5.75747461       5.67187134       3.17600601     -12.82230111      -7.60855516       0.79251080      -0.00528976      -0.00023886       0.00032796      -0.00062445      -0.00040177      -0.00215008      -0.68128040
H        2.64989889       4.89551518       4.06481025       0.26434205      -0.79609135       0.07396852       0.00012673       0.00054119       0.00001605      -0.00007396       0.00001352      -0.00016062      -0.53570304
H        2.69133228       6.14015131       6.80563524     -10.06549973      -1.64586689       0.98414300      -0.00518245       0.00036251       0.00009234      -0.00036411       0.00032309       0.00002843      -1.25751680
H        7.29578570       6.92923907       2.76378877       0.51595690       0.77412477      -0.35162204      -0.00010114      -0.00028482      -0.00000826       0.00017980       0.00010567      -0.00018680      -0.52997655
H        2.89773688       7.20694947       3.09015563      -0.00362045      -0.03376576       0.01423789       0.00000045       0.00003902       0.00000694      -0.00001645      -0.00000176       0.00000418      -0.00502581
H        4.79112181       5.21420534       6.73397515      -1.36959064       2.08753242       0.13581455       0.00207715       0.00096861       0.00006355       0.00003849      -0.00014109      -0.00025403      -1.05571475
H        6.68532556       6.11679518       3.19777317      11.34332841       4.88349785       0.86898568      -0.00572913      -0.00153553      -0.00001453       0.00014949       0.00000042      -0.00287116      -0.79492447
H        3.59717249       2.76342917       6.27311561       0.33503271      -0.23934988      -1.98956471       0.00004848       0.00011792       0.00121525       0.00016534      -0.00019184      -0.00003600      -0.49468639
H        5.29472519       4.66532264       3.74542724       0.77661286       1.88137226      -1.04870565       0.00044432       0.00115089       0.00036266      -0.00061040      -0.00032373       0.00062946      -0.45152448
H        7.04747792       7.27721053       4.98539083      -0.06263758      -0.12580227      -0.12020397       0.00003752       0.00007575       0.00022505       0.00004060      -0.00002056       0.00004432      -0.04308340
H        2.81700169       3.77848137       4.18290821       1.23144137       0.02419374       0.16284678       0.00073194       0.00059003       0.00012502      -0.00016854       0.00011448      -0.00037628      -1.04129484
H        6.90901470       2.80276419       6.40214056      -0.00344147       0.03837627       0.00952504       0.00000253       0.00004865       0.00000434       0.00001162       0.00000062      -0.00000488      -0.00379803
H        3.80116418       2.55491009       5.13099075      -0.32381493       2.18729235      -0.07874244       0.00013782       0.00086390       0.00196964      -0.00065951      -0.00019421      -0.00006557      -0.90511384
