20
Lattice="10.0 0.0 0.0 0.0 10.0 0.0 0.0 0.0 10.0" Properties=species:S:1:pos:R:3:forces:R:3:stresses:R:6:energies:R:1 energy=-52.33758362731977 stress="-0.004332353289693855 0.005595474805442734 0.00020735124606965674 0.005595474805442734 -0.0008346100474025545 0.002829718962666479 0.00020735124606965674 0.002829718962666479 -0.01062038890890149" free_energy=-52.33758362731977 pbc="F F F"
H        4.86215937       5.99918429       5.67459412       1.80121804       2.47052938       3.70950258      -0.00181521       0.00029273      -0.00253768      -0.00144820       0.00020108       0.00058601      -4.00323545
H        4.41803903       4.13686419       3.93461050      11.58400627      -4.95960917      -3.46383859      -0.00375863      -0.00153945      -0.00069498      -0.00021471       0.00203065       0.00172570      -1.93649998
H        4.50043012       5.22128317       6.48398367       1.69135957      -1.21989415      -3.63092988       0.00220829      -0.00099151       0.00135001      -0.00117663      -0.00061441       0.00000205      -3.49489043
H        3.48419840       5.61038132       6.80056679       2.26022962       0.36532217      -1.64374017       0.00124573       0.00037113       0.00095036       0.00010942      -0.00057965       0.00019840      -1.68248637
H        5.42653153       5.85974802       6.58521523       3.11149366      -2.27892470      -1.21534694       0.00014325       0.00057845       0.00093155       0.00078693      -0.00123038       0.00061745      -2.62273275
H        5.49186236       5.04741052       5.76696368       6.95919688      -3.96364938      11.70829064      -0.00078268       0.00053306      -0.00245552       0.00351024      -0.00315705      -0.00006770      -3.68038490
H        4.40568427       6.27896391       6.66857542      -2.75601998       2.08700441      -1.81516731       0.00050825      -0.00133244       0.00134980       0.00039141       0.00024539       0.00076372      -2.54671627
H        5.32180973       5.51720950       4.86215826      -5.85896696      -6.25011757     -13.81875139      -0.00103671      -0.00098527      -0.00710676       0.00174048       0.00177791       0.00007448      -3.64350842
H        4.34863591       5.12935037       4.36454823       0.42352538       0.86191053       1.34061930       0.00237443       0.00070320      -0.00044999      -0.00058083       0.00044540       0.00043316      -3.52601104
H        3.81295229       5.81917026       5.73798726      -1.17835833      -1.60050883       3.40762891      -0.00108538       0.00075567       0.00194676       0.00019347       0.00055979      -0.00119444      -3.18098069
H        6.16415817       6.00061998       4.45296252       5.28123366       3.43343406      -4.06762742      -0.00201693      -0.00074983      -0.00103946       0.00062899       0.00091076      -0.00113094      -1.58299608
H        2.99360055       6.72644576       3.31784448       0.06052892      -0.12987624       0.09711735       0.00003090       0.00011752       0.00007329      -0.00007701       0.00003776      -0.00004938      -0.02618023
H        4.50076531       4.97555583       5.41687805      -8.59191039       4.72117026       3.00205234      -0.00341430      -0.00164392      -0.00345871      -0.00079598      -0.00112442       0.00023842      -4.62103355
H        6.42839957       5.05355127       4.97700497      -5.77709047       1.18003795       2.51627468       0.00325090       0.00091899       0.00097657       0.00047657      -0.00087495      -0.00039145      -2.10209339
H        3.43354968       5.06265360       5.03049666       1.31588783       0.65474211       0.04051024       0.00131249      -0.00066504       0.00043266      -0.00021317       0.00001800       0.00018598      -2.79629463
H        5.11843910       4.26361049       4.90604001       2.31006017       3.52331152      -3.09277296       0.00104601       0.00246266       0.00164913      -0.00024532       0.00207080       0.00110339      -2.88132428
H        6.05773300       5.99214876       5.54719301      -3.48220908      -1.61638642       3.63167063       0.00228800       0.00080045       0.00038413       0.00016902      -0.00105457       0.00002672      -2.97281047
H        3.44320881       4.49039050       4.07365798      -8.27497718       4.43963938      -0.06730838      -0.00369602      -0.00039072      -0.00058079       0.00020773       0.00056073       0.00207318      -1.97226687
H        6.66268019       3.31109386       6.37288116      -0.14073701       0.22385008      -0.13156330       0.00009648       0.00019934       0.00008163      -0.00010151       0.00006174      -0.00011192      -0.04139195
H        4.01692419       4.13434214       4.93334890      -0.73847059      -1.94198538       3.49337967      -0.00123125      -0.00026962      -0.00242238      -0.00053117      -0.00007724       0.00051265      -3.02374589
