20
Lattice="10.0 0.0 0.0 0.0 10.0 0.0 0.0 0.0 10.0" Properties=species:S:1:pos:R:3:forces:R:3:stresses:R:6:energies:R:1 energy=-55.35485651792184 stress="0.0011757062283577451 0.004871702307746909 0.0015563790468721785 0.004871702307746909 0.0034477234058371722 -0.003520788711953934 0.0015563790468721785 -0.003520788711953934 0.0013660238631399131" free_energy=-55.35485651792184 pbc="F F F"
H        4.90079234       5.99283908       5.62262428      -1.86944959       1.18457391       0.38040751      -0.00207492      -0.00028700      -0.00093102      -0.00080641      -0.00021043       0.00015069      -4.27017024
H        4.46563258       4.01812907       3.97189065       5.79030054      -3.15103016       0.87098373      -0.00149967      -0.00123968       0.00117310       0.00006159       0.00093093       0.00113621      -2.06544538
H        4.50279164       5.26808061       6.43777722       3.14700650      -0.26959330      -0.19172632       0.00046346      -0.00033903      -0.00062156      -0.00112112      -0.00033265       0.00018845      -3.61335689
H        3.54894632       5.66000418       6.80622867      -0.35918966       1.02646967      -0.57000349       0.00000723       0.00015035       0.00065913      -0.00002089      -0.00015256       0.00052660      -1.68451624
H        5.43564878       5.85978054       6.57365894      -0.35617922       0.05777193       0.21810525       0.00077695       0.00026693       0.00022005       0.00039711      -0.00023608      -0.00022311      -2.73810189
H        5.46602487       5.03867812       5.80668141      -0.94541223      -1.73651401      -0.91790081      -0.00034392       0.00021374       0.00219090       0.00054107      -0.00050988      -0.00077918      -4.11984757
H        4.40498085       6.36142729       6.54104724       0.31414535       0.01668731       0.47544430       0.00097763      -0.00004949       0.00006888       0.00011073      -0.00006953      -0.00007999      -2.65539253
H        5.28738115       5.49037046       4.73820219      -0.08301114      -3.32390350       2.70350471       0.00136122       0.00122080       0.00161609      -0.00060876       0.00061031       0.00104875      -4.13006503
H        4.34281636       5.02958633       4.33444029      -0.01193838       0.66726852       0.05387436       0.00143011       0.00015963      -0.00096586      -0.00103818       0.00030212       0.00025769      -3.56188451
H        3.81645130       5.85584529       5.73090037      -0.41076160      -1.89004250      -0.10259533       0.00019980       0.00072751       0.00107935       0.00030564       0.00027956      -0.00038941      -3.27631663
H        6.20089850       6.10446902       4.54277828      -0.08288133      -0.86045399      -1.60229636       0.00045630       0.00066520      -0.00085400      -0.00021653      -0.00010049       0.00015384      -1.67457041
H        3.01593508       6.68205162       3.35320285       0.07065389      -0.13062617       0.10663957       0.00004230       0.00011513       0.00008234      -0.00008069       0.00004523      -0.00005488      -0.02645301
H        4.46779808       5.01494474       5.39837666       0.32025284       0.95708020       0.50697992      -0.00314530      -0.00203861      -0.00477166      -0.00114675      -0.00170950       0.00029615      -4.66366787
H        6.28453173       5.08053885       5.04121365      -2.07300461      -1.73531497      -1.22692728       0.00166329       0.00031734       0.00013132      -0.00045624       0.00009241       0.00065927      -2.46753236
H        3.45419969       5.03907163       5.02264390      -0.69160248      -0.20251291      -0.01075202      -0.00024080       0.00113480       0.00058801       0.00043967      -0.00036056      -0.00020045      -2.77035469
H        5.16176090       4.35743756       4.87375254       0.21546271       3.33312164      -1.39348425       0.00243585       0.00219198       0.00187616       0.00045566       0.00172211       0.00106239      -3.37672778
H        5.98817485       5.97410402       5.60098646       0.36683470       1.90375930       1.83813049      -0.00061083      -0.00116284      -0.00083397       0.00040779       0.00102309       0.00032793      -3.04911897
H        3.45821520       4.34054246       4.15088080      -3.42924637       2.09987546       0.73194662      -0.00155762       0.00002714      -0.00000671       0.00008594       0.00062564       0.00108293      -2.08893333
H        6.60922801       3.39731563       6.32825112      -0.20182634       0.30633767      -0.17471841       0.00013536       0.00026031       0.00010308      -0.00012820       0.00008520      -0.00015196      -0.05916465
H        4.07955336       4.06476122       5.03197339       0.28984641       1.74704589      -1.69561218       0.00069926       0.00111350       0.00056240      -0.00070222      -0.00047853      -0.00014022      -3.06323654
