20
Lattice="10.0 0.0 0.0 0.0 10.0 0.0 0.0 0.0 10.0" Properties=species:S:1:pos:R:3:forces:R:3:stresses:R:6:energies:R:1 energy=-17.142994029651582 stress="0.013005009395407219 0.004173742391283749 0.0009201179726360669 0.004173742391283749 0.011778352505609404 -0.003976621225360311 0.0009201179726360669 -0.003976621225360311 0.004807150536458464" free_energy=-17.142994029651582 pbc="F F F"
H        5.78806492       6.27651106       7.02849980       0.56927613      -2.00921112       0.01313465       0.00152145       0.00086083       0.00005287      -0.00002290       0.00033881      -0.00026967      -1.12661357
H        3.89423786       3.38891539       4.20590654      -1.13040147      -0.79706175       1.84582352       0.00078200       0.00094232       0.00098633      -0.00080524      -0.00011839      -0.00012601      -0.99853329
H        3.83589103       5.90236427       6.90543341      -1.67940152       0.28613175       0.46956398       0.00042377       0.00071181      -0.00003124      -0.00019034       0.00006621       0.00042604      -2.01949335
H        3.08358836       5.05336489       7.10310997       1.07244033       1.70359431      -0.56311796       0.00069063       0.00090346       0.00009867      -0.00020922      -0.00017293       0.00035036      -1.07303815
H        6.68714627       5.45539692       7.13872587      -3.14288311       1.50007169      -1.47633018       0.00147017       0.00068680       0.00052528      -0.00006101       0.00064577      -0.00068017      -0.91790131
H        5.84285216       5.40758777       6.33183656       1.01859741      -0.25192478       0.94122659       0.00076075      -0.00009462       0.00043314      -0.00009406       0.00045853       0.00001363      -1.49405838
H        3.55064149       7.00283045       6.85231396      -1.26958974      -2.84644908      -0.10417914       0.00081932       0.00150731       0.00001411       0.00004473       0.00004127       0.00055469      -0.95847925
H        5.63781512       5.60140335       3.16776800       1.42262461      -0.76838194       1.33128816       0.00145141       0.00118579       0.00036160      -0.00049427      -0.00013385       0.00100552      -0.83401853
H        2.69321097       4.88415640       4.06520284       0.12672795       0.41168967      -0.05600551       0.00013214      -0.00011754       0.00002235       0.00000900       0.00000370      -0.00008395      -0.54349390
H        2.73095382       6.08293895       6.78226356       2.09689464       1.14118169       0.30892387       0.00090824       0.00112743       0.00005086      -0.00001843       0.00008503       0.00057386      -1.41368265
H        7.36591406       6.99834976       2.75293931      -1.09310597      -1.52259211       0.97655505       0.00036141       0.00068456       0.00032227      -0.00038506      -0.00029119       0.00048730      -0.48574741
H        2.89669136       7.19860380       3.09371556      -0.00299536      -0.03407011       0.01430090       0.00000030       0.00003943       0.00000695      -0.00001655      -0.00000145       0.00000347      -0.00507070
H        4.73260111       5.38323926       6.51208824       1.37273476       0.41820778       0.29518020       0.00083081       0.00038030       0.00013061       0.00012697       0.00027332       0.00055975      -1.28933651
H        6.76326276       6.12249732       3.27220420      -1.19076187       0.50545221      -0.92749897       0.00158085       0.00100703       0.00035498      -0.00027411      -0.00015017       0.00107223      -0.89048813
H        3.59947718       2.78806613       6.22416816      -0.08661537       0.17813120       0.26400581       0.00000593       0.00007580      -0.00005211      -0.00007634       0.00004324       0.00000241      -0.53005124
H        5.20980120       4.63784702       3.76423841       0.60572822       1.69004334      -1.03583783       0.00044466       0.00106994       0.00040811      -0.00060200      -0.00031831       0.00058534      -0.50019076
H        7.03305446       7.24296143       4.95172647      -0.04761198      -0.15046050      -0.17453956       0.00002858       0.00009328       0.00026086       0.00005637      -0.00001432       0.00003911      -0.04792667
H        2.81928991       3.78706237       4.20470143       1.33232917      -1.19737320       0.29683842       0.00068587      -0.00008930       0.00012809      -0.00009299       0.00009842      -0.00027862      -1.05015292
H        6.90745721       2.81324144       6.40423852      -0.00823914       0.03540161       0.00489480       0.00000371       0.00004638       0.00000198       0.00000648      -0.00000035      -0.00001073      -0.00321798
H        3.81981035       2.60263976       5.14643010       0.03425233       1.70761933      -2.42422681       0.00010300       0.00075734       0.00073146      -0.00087765       0.00006678      -0.00005082      -0.96149933
