20
Lattice="10.0 0.0 0.0 0.0 10.0 0.0 0.0 0.0 10.0" Properties=species:S:1:pos:R:3:forces:R:3:stresses:R:6:energies:R:1 energy=-45.018105265544364 stress="0.010081250473257287 0.0021167546238794258 -0.0035285679715196306 0.0021167546238794258 0.009503117379812754 0.0036128008927825304 -0.0035285679715196306 0.0036128008927825304 0.004710576854896923" free_energy=-45.018105265544364 pbc="F F F"
H        4.98222514       5.99289256       5.79808395      -3.97595881      -0.67273658       1.68893220       0.00253915       0.00040929       0.00179874      -0.00015129      -0.00163632       0.00044719      -2.76772519
H        4.34639199       4.11104038       3.96810855       5.83746071      -0.02414047      -1.16647503      -0.00188693       0.00061831      -0.00020076       0.00037497       0.00079733       0.00122761      -2.16277812
H        4.49029053       5.19402807       6.64790874      -3.35187596       0.96810007      -1.37924567      -0.00061045       0.00062462       0.00132886      -0.00039543      -0.00038145      -0.00013692      -3.43331841
H        3.43531240       5.39971797       7.05207295       2.41589050       0.70813503      -1.08905105       0.00131596       0.00052104       0.00052253       0.00005710      -0.00051955       0.00029094      -1.62773223
H        5.27130745       5.93082539       6.86590714      -0.51612973       0.89983230       0.24921575       0.00087163      -0.00005057       0.00006521       0.00024825      -0.00006753      -0.00062150      -2.13589436
H        5.46620833       5.05606940       6.17066727       1.71797599      -0.03733059      -1.54591947      -0.00030613       0.00049644       0.00103713       0.00036089       0.00023962       0.00005600      -2.36979238
H        4.16012821       6.27227865       6.84015247       4.09248644      -1.00334169       1.58253740       0.00144945       0.00074902      -0.00028290      -0.00048009      -0.00149857      -0.00082240      -2.27787933
H        5.39606441       5.25447515       4.19278700      -2.83155029      -1.33374196       2.52250157       0.00200522       0.00059102       0.00123470       0.00015475      -0.00033603       0.00059095      -2.41356591
H        4.28076364       5.10834624       4.51591024       0.26853475      -0.12360652      -7.48154464       0.00115214       0.00088648      -0.00250651       0.00085740      -0.00067747       0.00051275      -3.58586400
H        3.73592684       5.71910160       6.02330773       2.55490163      -2.77812277      -5.24961434       0.00197824      -0.00003393      -0.00094989      -0.00036681      -0.00152440      -0.00081313      -2.97457217
H        6.20470943       5.93822629       3.85965151       0.68968585       0.80783177       0.97967449       0.00000430       0.00003658       0.00062144       0.00024866       0.00014798      -0.00000456      -1.53620237
H        2.95601704       6.83012249       3.25422533       0.02943775      -0.07246272       0.04855034       0.00001525       0.00007241       0.00003457      -0.00004616       0.00001908      -0.00002717      -0.01222326
H        4.55819442       5.01534391       5.53154713      -3.13104235      -0.73433026       6.22370420       0.00173344       0.00020104      -0.00173550       0.00087003      -0.00131887      -0.00038127      -4.16081459
H        6.40999315       5.22942164       4.70478975      -1.81652922       1.26885596       0.58828876       0.00133707       0.00125276       0.00051923       0.00013118      -0.00018564       0.00040625      -1.73344591
H        3.41562123       5.04338630       5.20093863       1.87482286      -1.11097894      -0.01837075       0.00147745       0.00023966       0.00101337       0.00044080       0.00067044      -0.00012452      -2.70137280
H        5.07240793       4.35986615       4.79273177       4.01550061       1.95692550      -0.57056988      -0.00075679       0.00057140       0.00065742       0.00035761       0.00065124      -0.00008825      -2.86781213
H        6.54163313       6.38051306       4.86554670      -1.27032954      -2.69704186      -1.19562663       0.00057110       0.00138090       0.00077280       0.00037954       0.00010179       0.00051759      -1.11217908
H        3.37253022       4.48894842       4.18941277      -2.94751905       3.15961895       3.39342907      -0.00132938       0.00015337       0.00096915       0.00024768       0.00109545       0.00122781      -2.04183905
H        6.75113574       3.17254367       6.40623626      -0.06935813       0.09616351      -0.04298697       0.00005046       0.00008745       0.00002909      -0.00003555       0.00002560      -0.00005901      -0.01700741
H        4.04490037       4.13283039       5.02752502      -3.58640402       0.72237127       2.46257065      -0.00152995       0.00069583      -0.00021810       0.00035928       0.00086874      -0.00008161      -3.08608657
