20
Lattice="10.0 0.0 0.0 0.0 10.0 0.0 0.0 0.0 10.0" Properties=species:S:1:pos:R:3:forces:R:3:stresses:R:6:energies:R:1 energy=-15.25048109829526 stress="-0.00266186016569162 0.00805900461961109 0.001951219367765195 0.00805900461961109 -0.00279437385677859 -0.003976009038468972 0.001951219367765195 -0.003976009038468972 0.0050535734475881024" free_energy=-15.25048109829526 pbc="F F F"
H        5.79887630       6.35109178       7.09373523       0.84652665      -3.51658692      -1.39613755       0.00130136       0.00162194       0.00052805       0.00060911       0.00025228      -0.00047603      -0.99528326
H        3.87620646       3.35363698       4.19066653      -0.77319881      -0.78411418       1.89290541       0.00059606       0.00087327       0.00102620      -0.00077751      -0.00010989      -0.00008352      -1.00799552
H        3.78311845       5.89138454       6.83497363       8.33017536     -16.68414119       1.20178698      -0.00646992      -0.00718831      -0.00026207      -0.00075491       0.00064703       0.00269959      -1.50261290
H        3.04225181       5.00221809       7.10443065       1.45601289       2.54777348      -0.81458049       0.00078484       0.00132797       0.00014027      -0.00033584      -0.00026842       0.00057272      -1.02847450
H        6.68279902       5.45162533       7.12820356      -3.23862671       1.64309404      -1.31874105       0.00152425       0.00079827       0.00047692      -0.00001673       0.00061045      -0.00073221      -0.85863929
H        5.77387369       5.42340232       6.38217781       2.57958489       1.43730612       2.25374988       0.00016500       0.00070249       0.00086581       0.00051374       0.00052084       0.00002021      -1.46396553
H        3.73009625       6.91526603       6.86364803      -2.24492953      12.37824628       0.32961451       0.00107843      -0.00635486       0.00002214      -0.00015160      -0.00003592       0.00097927      -0.69489093
H        5.58486924       5.57739696       3.15430339       1.18009005      -0.92541954       1.36643827       0.00135675       0.00104132       0.00036693      -0.00045604      -0.00006653       0.00086173      -0.74326255
H        2.68545292       4.88673331       4.06644658       0.07943187       0.63128979      -0.09628266       0.00012278      -0.00024116       0.00000584       0.00001884      -0.00000148      -0.00005716      -0.54012464
H        2.76600862       6.08169815       6.86382701      -9.46261130       2.84948099       0.47341409      -0.00487405       0.00088105       0.00002483      -0.00011759       0.00015919       0.00168649      -1.17333548
H        7.42335772       7.08773039       2.69819218      -0.96717553      -1.55221382       1.02421592       0.00031659       0.00079816       0.00037738      -0.00048163      -0.00031064       0.00049305      -0.29961628
H        2.89700989       7.20121441       3.09260924      -0.00309852      -0.03389855       0.01426310       0.00000033       0.00003923       0.00000694      -0.00001651      -0.00000151       0.00000359      -0.00504104
H        4.67029344       5.45965898       6.39516365       1.77387462      -0.71426284      -0.83263983      -0.00111340       0.00015786      -0.00009188      -0.00010340       0.00071064       0.00079776      -1.21230710
H        6.81271242       6.07271744       3.32733256      -1.01451583       0.80634153      -1.06052921       0.00149393       0.00106169       0.00043440      -0.00034722      -0.00012447       0.00099093      -0.60921563
H        3.60054882       2.77777340       6.23201469      -0.15819318       0.22215113       0.60541090      -0.00000240       0.00007279      -0.00023581      -0.00009761       0.00007936       0.00000416      -0.52777642
H        5.17401379       4.63063604       3.75840555       0.53497050       1.56941587      -0.99511170       0.00042583       0.00100024       0.00039992      -0.00057068      -0.00029978       0.00054330      -0.51751256
H        7.03654549       7.25037963       4.95819361      -0.04244491      -0.14956394      -0.16412387       0.00002654       0.00009566       0.00024393       0.00005884      -0.00001632       0.00003587      -0.04514838
H        2.82679963       3.79435783       4.20350416       1.06202798      -1.32951745       0.31105591       0.00051022      -0.00021405       0.00012659      -0.00007731       0.00008887      -0.00021020      -1.05299262
H        6.90724503       2.81098474       6.40331761      -0.00791630       0.03386705       0.00521577       0.00000374       0.00004451       0.00000193       0.00000689      -0.00000053      -0.00001036      -0.00290194
H        3.81968261       2.61007139       5.15636524       0.07001581       1.57075214      -2.79992438       0.00009129       0.00068756       0.00059526      -0.00087884       0.00011803      -0.00006017      -0.96938452
