20
Lattice="10.0 0.0 0.0 0.0 10.0 0.0 0.0 0.0 10.0" Properties=species:S:1:pos:R:3:forces:R:3:stresses:R:6:energies:R:1 energy=-67.08178386245284 stress="0.012712520934734052 -0.0044956226476039985 -0.00182173314371846 -0.0044956226476039985 0.002663218329772625 -0.0026401507829107774 -0.00182173314371846 -0.0026401507829107774 -0.0046613920905883" free_energy=-67.08178386245284 pbc="F F F"
H        5.01873906       5.94503841       5.42735684      -0.02849125       1.38414037       1.47285692      -0.00050183       0.00022967       0.00091239      -0.00054478      -0.00030185      -0.00013919      -4.64962190
H        4.65154018       4.64811006       4.16315377      -4.42273799       3.27845227      -1.74936260       0.00069889       0.00117952      -0.00052963       0.00083191      -0.00114355      -0.00021152      -3.17432842
H        4.45830104       5.29175719       6.20466566      -3.13545881       1.51929574       2.57110967       0.00045834      -0.00032381      -0.00125455      -0.00149878       0.00111710       0.00089841      -4.03374123
H        3.43618799       5.68636990       6.37769875       1.70253686       3.34536665       1.91850748       0.00113572      -0.00020674      -0.00036526      -0.00073032      -0.00023900       0.00055480      -2.20170511
H        5.43734056       5.79721583       6.43289835      -0.96566362      -0.06443748      -1.15016555       0.00177787       0.00065635       0.00074584       0.00053494      -0.00035535      -0.00044481      -2.72861046
H        5.36559654       4.90585107       5.75874122       1.66868835       2.05160107       1.48991926      -0.00181252      -0.00139145      -0.00091179      -0.00127001       0.00037763      -0.00027243      -4.73222950
H        4.41446342       6.37879999       6.34441432       1.72135662      -1.52631919      -0.60765098       0.00223253       0.00043472       0.00066329       0.00039586      -0.00078274      -0.00028699      -2.59097299
H        5.40908482       5.25636631       4.68327862      -0.67741091       0.81784123      -1.03039039      -0.00000603      -0.00022009       0.00006927      -0.00072220       0.00048308      -0.00009187      -4.68810054
H        4.36410431       5.80549529       4.42502275       1.63274136      -0.14524989      -0.46128742       0.00341325       0.00084427       0.00046889       0.00121299       0.00046438      -0.00080068      -3.42667332
H        3.93696189       5.99441846       5.43313870      -0.70025267      -1.88830588       0.91943998      -0.00205356       0.00076198      -0.00078840      -0.00017632      -0.00032197      -0.00046854      -4.32690645
H        6.47130237       5.49113563       4.43273179      -0.99644514      -0.36673240       1.18550678       0.00072779       0.00034209       0.00069892      -0.00012105      -0.00047739       0.00016233      -1.71867044
H        3.11728274       5.93718710       4.72317304       0.62247290      -0.67849871       0.58254069       0.00110239       0.00018068       0.00057446      -0.00115511      -0.00039088      -0.00036383      -1.94264016
H        4.45291725       5.04926343       5.17405346      -1.26904257      -5.17059461      -2.05545566      -0.00127962      -0.00338749      -0.00538042       0.00027737      -0.00012106      -0.00138749      -5.67701045
H        6.19957360       4.60613280       5.07570390       1.52908112       1.14578905       0.45062493      -0.00016413       0.00021146      -0.00000604       0.00057577      -0.00021539      -0.00017856      -3.19983860
H        3.40716543       5.01198353       5.53303484       2.52992458      -1.20914867      -2.59107351       0.00196221       0.00126937      -0.00033577      -0.00098150       0.00052128      -0.00031825      -3.30919370
H        5.18163700       4.18576312       4.98031594      -1.75235065      -2.08245558       0.55186317       0.00060151       0.00036653      -0.00181984      -0.00021749      -0.00109474      -0.00042919      -3.71677006
H        6.10367646       5.66355788       5.48906326      -0.96903888      -0.10756796      -0.65330814       0.00101342       0.00048255       0.00127867       0.00068239      -0.00006885      -0.00029517      -3.23532596
H        3.59230359       4.99383169       4.45049423       4.04201635      -1.93733483      -0.64446587       0.00123742      -0.00012087       0.00006762       0.00024666       0.00074097       0.00036977      -3.33940964
H        5.83443528       3.90841017       5.86168943      -0.66403596       0.04996959      -0.35198902       0.00043422       0.00038970       0.00032132      -0.00013879       0.00035561      -0.00020825      -1.75160622
H        4.03914804       4.07328987       4.93688210       0.13211032       1.58418923       0.15278028       0.00173466       0.00096476       0.00092964       0.00015830      -0.00036902      -0.00058415      -2.63842872
