20
Lattice="10.0 0.0 0.0 0.0 10.0 0.0 0.0 0.0 10.0" Properties=species:S:1:pos:R:3:forces:R:3:stresses:R:6:energies:R:1 energy=-69.60345257775735 stress="4.480344366490249e-06 -1.670358594708797e-05 -1.4634125614455919e-05 -1.670358594708797e-05 -2.1337735845523965e-06 -8.613774236932931e-06 -1.4634125614455919e-05 -8.613774236932931e-06 3.725052589175068e-05" free_energy=-69.60345257775735 pbc="F F F"
H        4.85458562       5.98083133       5.50076904      -0.00142295       0.00467952       0.00264298      -0.00075819       0.00060077      -0.00093822      -0.00078675      -0.00077681      -0.00031826      -4.75556412
H        4.62554187       4.92529635       4.03944780      -0.02014740       0.00641364       0.01185875       0.00142882       0.00041503       0.00005176       0.00010781       0.00005052       0.00026181      -3.26005378
H        4.48556275       5.10050791       6.19129038      -0.01930528       0.01782504       0.00028781       0.00017426      -0.00018363      -0.00031795      -0.00127789       0.00052325       0.00039455      -4.25361123
H        3.40905334       5.28268193       6.39290927      -0.01363047      -0.01646728      -0.00661904       0.00079836       0.00053356       0.00035241       0.00067899       0.00028514       0.00043111      -2.67862728
H        5.31727895       5.79666094       6.46813654      -0.00500956       0.00839386       0.00430327       0.00145460       0.00020969       0.00037106       0.00035629      -0.00067652       0.00003228      -2.74207631
H        5.46558101       5.01346877       5.68888330      -0.01544114      -0.02551619      -0.00866751      -0.00202488      -0.00036170       0.00048422      -0.00027583       0.00002896      -0.00070239      -4.70542367
H        4.20766510       6.13270995       6.39899267       0.03984148       0.00838876      -0.00815664       0.00161652      -0.00010227       0.00048484       0.00019149      -0.00007313       0.00046529      -2.73083898
H        5.38263370       5.52721450       4.64360719      -0.01544243       0.00817306      -0.02113752      -0.00094186      -0.00021596       0.00105495       0.00002714       0.00078910      -0.00006106      -4.73576669
H        4.33232478       5.89393255       4.51109467      -0.00441306      -0.01080282       0.00043630       0.00079390       0.00035782       0.00032539      -0.00006760       0.00020829       0.00024866      -3.39362625
H        3.79656884       5.69311369       5.46140724      -0.00057390      -0.01319498       0.00536193      -0.00154111       0.00031325      -0.00094329      -0.00014637       0.00107689      -0.00064329      -4.64979328
H        6.36291475       6.01240743       4.47481346       0.00154599      -0.00560955       0.01407240       0.00031443       0.00022552       0.00016076      -0.00011383      -0.00020031       0.00012485      -1.72289380
H        2.83623635       5.16529567       5.40261784      -0.00441587      -0.00296713      -0.01037206       0.00040665      -0.00028251       0.00100133       0.00022986      -0.00016963      -0.00002972      -2.21712553
H        4.56100706       5.00703017       5.12146234       0.03365954       0.00474690      -0.00025385      -0.00614777      -0.00515381      -0.00615838      -0.00081511      -0.00010985      -0.00058491      -5.59382140
H        6.30164980       5.01333356       4.97530774       0.00038822      -0.00405421      -0.00475833       0.00047421       0.00049774      -0.00004339       0.00054895       0.00013814       0.00011113      -3.19491629
H        3.71868517       4.53605301       5.60242284      -0.01192862      -0.00188877       0.00170799      -0.00064483       0.00124635       0.00083903       0.00055694      -0.00002997      -0.00006496      -3.72234276
H        5.37100545       4.41478775       4.71240971      -0.00036303      -0.01434152       0.00866165       0.00102319       0.00056823       0.00055893       0.00041019       0.00027617       0.00098606      -3.76838355
H        5.96106479       5.96583009       5.51522176       0.00275632       0.00991106       0.00523152       0.00053098       0.00004212       0.00101052       0.00061129      -0.00010122      -0.00018272      -3.23705587
H        3.61665042       5.01555804       4.58418137       0.01677523       0.01188468       0.01601575       0.00081813       0.00078581       0.00095633       0.00013048      -0.00084721       0.00001301      -3.71863772
H        6.03458705       4.07857901       5.53837288       0.01099643       0.01211494      -0.00407687       0.00045191       0.00039742       0.00003958      -0.00015286       0.00003980      -0.00011184      -1.76989562
H        4.25116486       4.07468493       4.68416250       0.00613051       0.00231100      -0.00653854       0.00177715       0.00010443       0.00074737      -0.00022180      -0.00044624      -0.00038631      -2.75299844
