20
Lattice="10.0 0.0 0.0 0.0 10.0 0.0 0.0 0.0 10.0" Properties=species:S:1:pos:R:3:forces:R:3:stresses:R:6:energies:R:1 energy=-35.466172569392135 stress="-0.0024696568140224256 -0.011882986257361528 -0.009857397416199658 -0.011882986257361528 0.003411194283569378 0.000957460921531114 -0.009857397416199658 0.000957460921531114 0.015797259555594186" free_energy=-35.466172569392135 pbc="F F F"
H        5.03449127       5.84155894       5.89884932       5.60275446      13.50329839       3.97324217       0.00018200      -0.00527556       0.00212107      -0.00012666      -0.00066790      -0.00357978      -1.99395109
H        4.28994190       3.84734219       4.07739501      -1.65136203       3.24948276       2.46593363       0.00059396       0.00194827       0.00144679       0.00028409      -0.00061240      -0.00035475      -2.02287830
H        4.46893446       5.42696088       6.76872598       3.76355910      -2.58950035      -5.80669637      -0.00327080      -0.00101669      -0.00110657      -0.00091814       0.00073368      -0.00225644      -3.20788911
H        3.47403631       5.31588890       7.08954790      -6.18127613      -0.57377507       3.03274382      -0.00296509       0.00062384      -0.00049533       0.00059639       0.00085625       0.00006140      -1.30190069
H        5.18442236       6.01861760       7.29173165       1.47998500       2.71290468      -0.78319059       0.00003905      -0.00008755       0.00114487      -0.00036963      -0.00036548      -0.00156066      -1.34203183
H        5.52814451       4.90362294       6.35314833      -2.04262309       2.85537834       1.19552282       0.00111870       0.00147905       0.00095511       0.00047914      -0.00061738      -0.00098506      -1.69303279
H        4.18216457       6.50059969       6.80908447       1.51439424      -3.24730803      -0.50076618       0.00185767       0.00137985       0.00103404       0.00025601       0.00004099      -0.00013027      -1.92597283
H        5.27233907       5.14717402       3.78872574      -1.07998216      -0.34849447       3.12295823       0.00285583       0.00107275       0.00127385      -0.00038318      -0.00046599       0.00115388      -1.63507423
H        4.10649055       5.07441380       4.19541377       3.29639430      -3.12825524       2.67025925       0.00187622       0.00191480       0.00250624      -0.00046530      -0.00052526      -0.00041493      -2.37701552
H        3.53433326       5.84869621       6.13439549       5.04006618      -2.40203081      -2.10511591       0.00259166       0.00162471       0.00056777       0.00139743       0.00040884      -0.00093876      -2.22139150
H        6.47829625       6.17109084       3.47142986      -0.22236217       0.43790837      -0.85851779       0.00034382      -0.00000005      -0.00038666       0.00032115       0.00005240       0.00021443      -1.09818554
H        2.92730461       6.91932618       3.20784077       0.03579468      -0.05828112       0.02921448       0.00002541       0.00005807       0.00001478      -0.00002907       0.00001617      -0.00003340      -0.00822099
H        4.57883591       4.93387573       5.79696729       6.24845598     -14.85441983       0.11893708      -0.00840940      -0.00477863       0.00002033      -0.00003451      -0.00437024      -0.00412232      -2.55061982
H        6.23397930       5.53967008       4.33918557      -2.19872832      -1.03410027       0.86039851       0.00135099       0.00052779      -0.00001893       0.00054515       0.00037361       0.00070107      -1.60373227
H        3.65814432       4.84369342       5.37875826     -14.08927478       2.94040551      -6.59841537      -0.00631880       0.00042255       0.00088522       0.00031505      -0.00426157      -0.00049989      -2.29406548
H        4.95703572       4.49236187       4.68873616      -3.19463662       2.35280316       2.95070785       0.00250865       0.00133059       0.00266697      -0.00017922      -0.00123464       0.00025679      -2.74685167
H        6.73299061       6.55649914       4.49810481      -0.63264000      -1.07947188      -0.28537904       0.00023655       0.00055377       0.00015468       0.00009839       0.00003434       0.00032809      -1.02002825
H        3.32577304       4.32871282       4.46130000       2.35269191      -2.11770225       0.52246939       0.00144905       0.00010429       0.00034945      -0.00038193       0.00047473      -0.00068183      -2.07145381
H        6.81401620       3.06849641       6.41514853      -0.06501504       0.08190030      -0.01277618       0.00004841       0.00007389       0.00000779      -0.00001010       0.00001166      -0.00005800      -0.01359457
H        4.11008737       3.85137608       5.24302198       2.02380449       3.29925781      -3.99152980       0.00141648       0.00145544       0.00265580      -0.00043761       0.00026080       0.00101744      -2.33828228
