20
Lattice="10.0 0.0 0.0 0.0 10.0 0.0 0.0 0.0 10.0" Properties=species:S:1:pos:R:3:forces:R:3:stresses:R:6:energies:R:1 energy=-55.49029416163899 stress="0.001244665605356267 0.004882218684063414 0.0016362384161524776 0.004882218684063414 0.004053421475240617 -0.003473149717674478 0.0016362384161524776 -0.003473149717674478 0.002186478397479393" free_energy=-55.49029416163899 pbc="F F F"
H        4.89628930       5.99402866       5.61221690      -1.46698107       1.26773308       0.27810088      -0.00208251      -0.00040483      -0.00072640      -0.00079996      -0.00020644       0.00010153      -4.27924395
H        4.49387584       3.99919263       3.98166124       5.35407188      -2.54888353       1.43254779      -0.00133414      -0.00099639       0.00137836       0.00020082       0.00082729       0.00110679      -2.07101750
H        4.50574594       5.26977275       6.43323947       2.21553976       0.51657548       0.41286807       0.00041450      -0.00009503      -0.00078584      -0.00121218      -0.00021817       0.00011144      -3.62791765
H        3.55107566       5.67694949       6.79391926      -0.49838711       0.53466628      -0.45710600      -0.00002168       0.00004346       0.00060515       0.00006738      -0.00014765       0.00031914      -1.69648827
H        5.42195920       5.88435058       6.57584696      -0.04690588      -0.45892774      -0.26164814       0.00055715       0.00035340       0.00040649       0.00050712      -0.00015679      -0.00013585      -2.74177210
H        5.45014752       5.04238421       5.81740589      -0.00798965      -0.95085204      -1.06588072      -0.00053338       0.00049781       0.00227920       0.00050329      -0.00043267      -0.00058035      -4.15468080
H        4.39818173       6.36807347       6.52514539       0.23256887       0.24947715       0.35750090       0.00054011      -0.00002316       0.00001642       0.00017635       0.00001407      -0.00011392      -2.67078519
H        5.28607506       5.48836441       4.72748180      -0.09331410      -2.14241766       3.19523434       0.00145119       0.00075641       0.00193530      -0.00055058       0.00049139       0.00107053      -4.10149934
H        4.34533908       5.01546095       4.33118798       0.09426017       0.66739289       0.13614266       0.00132798       0.00017577      -0.00088399      -0.00102653       0.00017005       0.00012122      -3.56368707
H        3.81212122       5.85601151       5.71635673      -0.79321351      -1.76030901      -0.01849145       0.00014165       0.00068160       0.00115264       0.00028687       0.00049902      -0.00020006      -3.26032829
H        6.20503218       6.10727702       4.55331166      -0.20046220      -1.27242599      -1.59758886       0.00052660       0.00086922      -0.00090937      -0.00029326      -0.00008773       0.00019866      -1.66854632
H        3.02466212       6.66370766       3.36725553       0.08623312      -0.14393137       0.12737890       0.00005459       0.00012425       0.00010296      -0.00009231       0.00006010      -0.00006369      -0.02799984
H        4.45709532       5.01944173       5.39613029       0.53898103       0.04929464      -0.36965284      -0.00317058      -0.00220679      -0.00493150      -0.00127822      -0.00171153       0.00046942      -4.65120006
H        6.27105488       5.07214618       5.05382012      -2.33703110      -1.21390298      -1.13479974       0.00174258       0.00066856       0.00024234      -0.00041990       0.00006287       0.00064931      -2.51649426
H        3.44454406       5.01708366       5.01645737      -0.08664898       0.23544448       0.51265467      -0.00001505       0.00124527       0.00051398       0.00034101      -0.00040256      -0.00026444      -2.73836858
H        5.17606621       4.37986019       4.88168833      -0.01867040       2.09954596      -1.25067096       0.00260465       0.00163974       0.00185717       0.00056462       0.00167003       0.00111122      -3.45820802
H        5.98398394       5.97818731       5.60818710       0.15830234       0.95505178       1.80158240      -0.00052343      -0.00073427      -0.00083454       0.00049504       0.00100031       0.00040398      -3.04679440
H        3.48174549       4.31665292       4.15903835      -3.45508567       1.20704429       0.17481667      -0.00158263      -0.00019571      -0.00017450      -0.00010258       0.00059446       0.00087819      -2.10079215
H        6.58701380       3.43343425       6.31074225      -0.22923139       0.34860267      -0.20087856       0.00015117       0.00028920       0.00011681      -0.00014385       0.00009479      -0.00016834      -0.06909585
H        4.09975303       4.04759817       5.04641830       0.55396389       2.36082160      -2.07211001       0.00099590       0.00136492       0.00082580      -0.00069628      -0.00048459      -0.00013255      -3.04537452
