20
Lattice="10.0 0.0 0.0 0.0 10.0 0.0 0.0 0.0 10.0" Properties=species:S:1:pos:R:3:forces:R:3:stresses:R:6:energies:R:1 energy=-58.65879721509758 stress="-0.0012050153864792694 -0.00634505849423944 -0.008383833873294664 -0.00634505849423944 -0.007007847526271872 -0.000991110319507099 -0.008383833873294664 -0.000991110319507099 0.0023184852297317912" free_energy=-58.65879721509758 pbc="F F F"
H        4.87587736       6.06427511       5.56853467       0.76827462       1.93032809       2.28725577       0.00072536      -0.00034813       0.00061623      -0.00088731      -0.00102624      -0.00098894      -4.08742498
H        4.68150281       4.18766508       4.09672072      -1.15562237       1.05790103      -1.33610059       0.00027040       0.00085884      -0.00042939       0.00050772      -0.00053512       0.00009833      -2.37541651
H        4.55901486       5.31970032       6.50170945       2.99963254      -0.04462280      -2.67053808       0.00160512      -0.00025744       0.00099317      -0.00106582      -0.00041246       0.00033391      -3.56357845
H        3.54906388       5.63140320       6.84551458       0.93603201       0.78214724      -0.46582719       0.00059476       0.00045018       0.00039473       0.00011235      -0.00033180       0.00045688      -1.67871161
H        5.49498159       5.97491937       6.45928209      -1.13451901       1.55572189       0.93115007       0.00197526      -0.00032744       0.00043276      -0.00012719      -0.00108893       0.00004086      -2.62386249
H        5.48307720       5.08266991       5.84182469       0.11622639      -0.82752064      -0.01498212      -0.00003368      -0.00075525      -0.00002193      -0.00052623      -0.00107419      -0.00103589      -4.61737380
H        4.37616904       6.39099950       6.56249916       2.55259464       0.63906373      -0.31276311       0.00165157      -0.00054858       0.00060181       0.00010942      -0.00112179      -0.00033074      -2.54715374
H        5.28801473       5.41329653       4.79342954      -6.90491267       1.72181018      -9.23662793      -0.00219649      -0.00423422      -0.00156997      -0.00018158      -0.00066597      -0.00055236      -4.20066984
H        4.23815234       5.17605478       4.38487574       0.98861438      -1.19410007       1.83804008       0.00224458       0.00220275       0.00103832      -0.00056937       0.00061349      -0.00029103      -3.53667056
H        3.80217299       5.86750443       5.78935124      -0.84055145      -2.52691062      -2.16009567       0.00045961       0.00052458       0.00052309       0.00003276       0.00039389      -0.00020741      -3.24328053
H        6.26770982       5.66575047       4.30543276      -0.76229326       1.05109293      -0.31403479       0.00061031      -0.00033673       0.00018778       0.00032283      -0.00035804       0.00019488      -1.69892099
H        3.28921613       6.18878947       3.76129909       0.90233960      -1.25381182       0.95101247       0.00044979       0.00077489       0.00051487      -0.00048015       0.00035557      -0.00046472      -0.27785161
H        4.47826861       5.07847127       5.44615388      -3.26243006      -3.68930620       0.27843603      -0.00370820      -0.00369387      -0.00271406      -0.00052611      -0.00048255      -0.00049245      -4.83340242
H        6.17185340       4.79948718       4.96974277       6.50439993       2.92872172       2.62481468      -0.00293081      -0.00033238       0.00020132       0.00158195      -0.00033965      -0.00130748      -3.00937965
H        3.43144330       4.95392561       5.14939062      -1.11352080       2.78680187      -1.23978555      -0.00024964       0.00054927       0.00208241       0.00106761      -0.00016400       0.00094897      -2.72698093
H        5.20467442       4.38157649       5.02439004      -4.15256967      -8.58077967       4.00081109      -0.00278051      -0.00320565      -0.00074917      -0.00013678       0.00055772      -0.00197921      -3.78145155
H        6.00430974       5.92848621       5.36583821       3.12042779       2.18979041       5.41324178      -0.00029693       0.00042464       0.00013036      -0.00036379      -0.00225070      -0.00158368      -2.98645920
H        3.56365314       4.30365997       4.15242476      -0.93108347       2.45108195      -0.20314277       0.00016575       0.00079093       0.00009664       0.00103053      -0.00049263       0.00027347      -2.08880793
H        6.01099839       4.10267294       5.82528184      -1.87023029       0.73500459      -1.32856218       0.00103464       0.00054219       0.00066467      -0.00026336       0.00071534      -0.00045811      -1.72891924
H        4.12160785       4.11866988       5.06381504       3.23919114      -1.71241380       0.95769802      -0.00079591      -0.00008643      -0.00067516      -0.00062857      -0.00067579       0.00099966      -3.05248119
