20
Lattice="10.0 0.0 0.0 0.0 10.0 0.0 0.0 0.0 10.0" Properties=species:S:1:pos:R:3:forces:R:3:stresses:R:6:energies:R:1 energy=-66.94272724248744 stress="0.0025002447074650345 -0.0010550328816238018 0.0008420084478390243 -0.0010550328816238018 -0.003034653715740701 0.001828638878703143 0.0008420084478390243 0.001828638878703143 -0.0019963142219687063" free_energy=-66.94272724248744 pbc="F F F"
H        4.99824452       5.92533287       5.45065238       0.00741842      -0.38428217      -0.20283720      -0.00210713       0.00088782      -0.00051750      -0.00055223       0.00027275       0.00059300      -4.74453557
H        4.55098230       4.69123023       4.17562909      -1.51993590       2.03777851      -1.96888075      -0.00103402       0.00034979      -0.00020417       0.00086179      -0.00056862      -0.00050192      -3.27160323
H        4.56584314       5.27790101       6.28939306      -0.88143763      -1.12926960       0.22212677      -0.00026187      -0.00112925       0.00012242      -0.00080174       0.00062562       0.00078391      -3.89966431
H        3.60690743       5.71815960       6.61764318       0.05005431      -0.05562376       0.08770499       0.00067836       0.00061267       0.00033425       0.00067995       0.00021967       0.00060492      -1.90100738
H        5.55199811       5.80583863       6.38794506      -0.22464298      -0.12384660      -0.11451978       0.00106179       0.00038870       0.00042172       0.00044976      -0.00044482      -0.00017035      -2.76391986
H        5.42579271       4.90952461       5.73618306      -0.41433302       0.15655109      -0.10385521      -0.00146658      -0.00084280      -0.00050336      -0.00050965       0.00104083      -0.00025441      -4.75822378
H        4.55193360       6.36484499       6.38613266       0.35389755       0.32543480       0.17075971       0.00131931      -0.00030331       0.00046090       0.00015398      -0.00046863      -0.00006276      -2.67704029
H        5.33765111       5.25613503       4.66982929      -0.24093425       0.77121151      -0.46421487      -0.00048670      -0.00107413      -0.00055622      -0.00093552      -0.00009941      -0.00059400      -4.75373165
H        4.31256957       5.76969240       4.55104727       0.58791565      -0.05078308      -0.38851634       0.00244070       0.00066464       0.00050905       0.00086438      -0.00008923      -0.00041112      -3.88254110
H        3.93631553       5.89547627       5.59559648      -0.01462697       0.89370420      -0.10546245      -0.00318060      -0.00059301      -0.00219142       0.00040603      -0.00041764      -0.00091272      -4.23424603
H        6.35196260       5.51326133       4.30620573      -0.15340617       0.32467859       0.08260289       0.00037730       0.00004585       0.00032860       0.00006756      -0.00026743       0.00006135      -1.73046640
H        3.19664549       5.95441283       4.81186835      -0.27987123      -0.09637859      -0.26923129       0.00069888       0.00020565      -0.00051211      -0.00099263      -0.00059906      -0.00031459      -2.18749663
H        4.43716935       4.96261713       5.25298663       1.29923779       0.48646962       0.42280683      -0.00099484      -0.00205925      -0.00163890       0.00024024       0.00046947      -0.00032140      -5.59377088
H        6.20852432       4.65625202       5.00101570      -0.63990643      -0.83706302      -0.22536717       0.00084313       0.00001978      -0.00031966       0.00045937       0.00023906       0.00018097      -3.19261740
H        3.36400768       4.97894653       5.43804971      -0.55628642       0.24195977       0.03178816       0.00023737       0.00101825       0.00175558       0.00014855       0.00014448      -0.00034397      -3.13020822
H        5.15944022       4.18980065       4.93289760       0.06109151      -0.84214213       0.93249451       0.00195772       0.00023007      -0.00056373       0.00042770      -0.00037914       0.00067140      -3.62556588
H        6.07872861       5.70932957       5.37673533       0.73514378       0.59390101       0.25171809       0.00013745       0.00000651       0.00053661       0.00037882      -0.00004585      -0.00012862      -3.25872162
H        3.50890558       5.02702220       4.33482749       1.44752426      -0.41413149       0.15322230       0.00052427      -0.00156137       0.00058008       0.00006108       0.00124731       0.00072776      -3.01573096
H        5.87043526       3.89606853       5.74582174      -0.24285105       0.00939072      -0.05188021       0.00033705       0.00038465       0.00015465      -0.00013844       0.00014193      -0.00018867      -1.74697267
H        3.87770448       4.12813130       4.84705110       0.62594878      -1.90755939       1.53954100       0.00141863      -0.00028591      -0.00019311       0.00055962      -0.00017929      -0.00047380      -2.57466342
