20
Lattice="10.0 0.0 0.0 0.0 10.0 0.0 0.0 0.0 10.0" Properties=species:S:1:pos:R:3:forces:R:3:stresses:R:6:energies:R:1 energy=-69.40976869463928 stress="0.002080880659263426 -0.0017414254654487264 -0.0001974114072366158 -0.0017414254654487264 0.0027117548027247402 -0.0010449491017160734 -0.0001974114072366158 -0.0010449491017160734 -0.0011003986551486418" free_energy=-69.40976869463928 pbc="F F F"
H        4.97597707       5.96858648       5.42522530       0.09640834       0.05962194       0.01956068      -0.00070937       0.00047132      -0.00056964      -0.00093969      -0.00074958      -0.00014780      -4.73181750
H        4.63141365       4.79601336       4.07925579      -1.49978199       1.08587282      -0.60231223       0.00163546       0.00064690      -0.00029410       0.00024686      -0.00021863      -0.00042652      -3.19576263
H        4.46032454       5.20453112       6.18738061      -0.98655554       1.52337267       0.65300019       0.00020309       0.00004538      -0.00026805      -0.00151632       0.00049554       0.00034511      -4.20072592
H        3.43774663       5.61620099       6.34680817      -0.10606773      -0.29877387      -0.09635411       0.00090860       0.00034736       0.00029326       0.00058170       0.00031808       0.00020711      -2.70333330
H        5.39028022       5.79151550       6.41746541       0.13741776       0.05460726       0.20849039       0.00131651       0.00014044       0.00022543       0.00035592      -0.00053516      -0.00006208      -2.76155496
H        5.41029477       4.93355085       5.71757329       0.50880614       0.17785753       0.04797398      -0.00241650      -0.00065356      -0.00010521      -0.00079242       0.00021580      -0.00040837      -4.71702049
H        4.36589369       6.28965040       6.30215307       0.07648067      -0.01791799       0.03329557       0.00127638      -0.00002186       0.00035107       0.00030364      -0.00006712       0.00006997      -2.77088244
H        5.42995085       5.35557580       4.62933034       0.36029628      -1.46105777       0.92492706      -0.00111160       0.00053505       0.00097922      -0.00036420       0.00034005       0.00032486      -4.72630496
H        4.45667348       5.86269531       4.42508411      -0.00233200       0.18604428       0.00332943       0.00079056       0.00034280       0.00066511       0.00036036       0.00007732       0.00010109      -3.37797608
H        3.88306736       5.88226441       5.38699330       0.73969884      -1.36103811      -0.47026716      -0.00128601       0.00097171      -0.00040264      -0.00054654       0.00083954      -0.00043946      -4.61488215
H        6.48543369       5.64723264       4.44933787      -0.12691826      -0.08193783      -0.08885353       0.00044133       0.00017415       0.00010201      -0.00009888      -0.00020966       0.00011083      -1.71969141
H        2.84405974       5.52416563       5.36669478       0.14725406      -0.01606942       0.05399536       0.00044414      -0.00017762       0.00092497       0.00034306      -0.00007353      -0.00015980      -2.21420784
H        4.51841137       5.03317380       5.13028923      -0.50176404      -0.33269715      -0.28460113      -0.00509597      -0.00502797      -0.00618202      -0.00059438      -0.00007960      -0.00079764      -5.62002028
H        6.23863920       4.72059513       5.02681065       0.16075465       0.13827574       0.07448299       0.00044523       0.00056011      -0.00013260       0.00050999       0.00019637       0.00011946      -3.19886674
H        3.59904326       4.76310894       5.62679348      -0.07069237       0.31020424      -0.00962635      -0.00058918       0.00135516       0.00061922       0.00036793       0.00006614       0.00032712      -3.72065769
H        5.22215950       4.24497141       4.85930268      -0.70799362       1.11712178      -1.11666465       0.00162020       0.00110482       0.00006022      -0.00008107       0.00000363       0.00077697      -3.75453695
H        6.06503946       5.76623980       5.47382912      -0.10058261      -0.03839767       0.09009375       0.00048612       0.00030383       0.00078884       0.00068807       0.00005766      -0.00029582      -3.23738453
H        3.58073892       5.16906706       4.57274935       1.80828969      -0.91944502       0.32675934       0.00168371       0.00091110       0.00116450       0.00034389      -0.00070077      -0.00047549      -3.65328275
H        5.85676195       3.92128398       5.71525810      -0.00644884       0.08761758       0.01192260       0.00035686       0.00043155       0.00010548      -0.00016612       0.00003351      -0.00012558      -1.75533033
H        4.03985222       4.13955515       4.76917633       0.07373058      -0.21326101       0.22084783       0.00168131       0.00025109       0.00057452      -0.00004676      -0.00020697      -0.00078537      -2.73552973
