20
Lattice="10.0 0.0 0.0 0.0 10.0 0.0 0.0 0.0 10.0" Properties=species:S:1:pos:R:3:forces:R:3:stresses:R:6:energies:R:1 energy=-69.60349766929971 stress="2.6489544612981567e-05 -7.1211776981377994e-06 -5.3761366543576515e-06 -7.1211776981377994e-06 -1.7895526088196614e-05 -7.914739936693555e-07 -5.3761366543576515e-06 -7.914739936693555e-07 9.04369426354123e-06" free_energy=-69.60349766929971 pbc="F F F"
H        4.85470917       5.98074021       5.50079256       0.00161685       0.00067835       0.00222413      -0.00076436       0.00060234      -0.00094685      -0.00078825      -0.00077177      -0.00031803      -4.75549154
H        4.62484617       4.92561105       4.03951756      -0.02163749      -0.00004335       0.00666317       0.00142784       0.00041307       0.00004981       0.00010602       0.00004933       0.00026037      -3.26013948
H        4.48575515       5.10053813       6.19139408      -0.00119310       0.00238371      -0.00141549       0.00018520      -0.00018911      -0.00032008      -0.00127534       0.00051695       0.00039685      -4.25411196
H        3.40918536       5.28208730       6.39357633       0.00474840       0.00242215      -0.00308342       0.00080748       0.00054084       0.00035116       0.00067880       0.00028651       0.00043886      -2.67739717
H        5.31784655       5.79638931       6.46794822       0.00168717       0.00135566       0.00118560       0.00144750       0.00021089       0.00037304       0.00035798      -0.00067558       0.00003376      -2.74257000
H        5.46582334       5.01317793       5.68852940      -0.02348983      -0.01712494      -0.00784711      -0.00200966      -0.00035340       0.00049277      -0.00027559       0.00002186      -0.00070534      -4.70548957
H        4.20875949       6.13285547       6.39937931      -0.00028086      -0.00192841      -0.00154262       0.00161623      -0.00009752       0.00048237       0.00019070      -0.00006901       0.00047638      -2.72995273
H        5.38216725       5.52732945       4.64327886      -0.00761267       0.01917465      -0.01894773      -0.00094419      -0.00021841       0.00105475       0.00002558       0.00079042      -0.00005775      -4.73550645
H        4.33174106       5.89401436       4.51160752      -0.00045051      -0.00106676      -0.00117096       0.00079049       0.00035312       0.00032352      -0.00006906       0.00020669       0.00024496      -3.39385078
H        3.79667294       5.69288205       5.46227225      -0.00370869      -0.00244792       0.00319477      -0.00153658       0.00031084      -0.00094686      -0.00014198       0.00107534      -0.00063999      -4.65053475
H        6.36238143       6.01283744       4.47450439       0.00111337       0.00253656      -0.00065686       0.00031600       0.00022122       0.00015409      -0.00011145      -0.00019865       0.00012559      -1.72295870
H        2.83618290       5.16515763       5.40328802      -0.00071075       0.00104603      -0.00107290       0.00040857      -0.00028093       0.00099882       0.00022848      -0.00016611      -0.00002777      -2.21728156
H        4.56094951       5.00693071       5.12158245       0.02838501       0.01040941       0.00612902      -0.00614488      -0.00515191      -0.00616035      -0.00081671      -0.00011062      -0.00058489      -5.59377189
H        6.30135775       5.01350579       4.97409816       0.00986261       0.00313607       0.00507537       0.00047075       0.00048277      -0.00004490       0.00055717       0.00013317       0.00010896      -3.19503407
H        3.71872310       4.53586244       5.60276182      -0.00446641       0.00087049       0.00039162      -0.00064023       0.00124562       0.00083916       0.00055652      -0.00002945      -0.00006287      -3.72242558
H        5.37078644       4.41490837       4.71188882      -0.00168529      -0.02423495       0.01493711       0.00102399       0.00056718       0.00056298       0.00040649       0.00027941       0.00098242      -3.76838737
H        5.96110386       5.96568825       5.51490555       0.00196107       0.00228814       0.00665438       0.00052768       0.00004452       0.00100660       0.00061363      -0.00009663      -0.00018144      -3.23719131
H        3.61628239       5.01588053       4.58485103       0.01845986      -0.00869758       0.00337610       0.00081260       0.00078238       0.00095119       0.00012897      -0.00084394       0.00000821      -3.71891628
H        6.03561328       4.07880813       5.53717648      -0.00331471       0.00526934      -0.00433265       0.00045363       0.00039312       0.00004096      -0.00014961       0.00004414      -0.00011650      -1.76976483
H        4.25087449       4.07477303       4.68415771       0.00071597       0.00397335      -0.00976152       0.00177841       0.00010547       0.00074688      -0.00022314      -0.00044745      -0.00038890      -2.75272165
