20
Lattice="10.0 0.0 0.0 0.0 10.0 0.0 0.0 0.0 10.0" Properties=species:S:1:pos:R:3:forces:R:3:stresses:R:6:energies:R:1 energy=-69.6028759217271 stress="0.00023870291662295623 0.0001721524752089273 9.733152189467802e-05 0.0001721524752089273 0.00011444852699348174 8.524044599956615e-06 9.733152189467802e-05 8.524044599956615e-06 -8.942107667709459e-05" free_energy=-69.6028759217271 pbc="F F F"
H        4.85419062       5.98051530       5.49998489       0.00829476      -0.00132907      -0.00293941      -0.00075603       0.00059769      -0.00094665      -0.00079226      -0.00077276      -0.00030407      -4.75606774
H        4.62870680       4.92329505       4.03957703       0.00882552      -0.00696122      -0.01444104       0.00143218       0.00041470       0.00003668       0.00010508       0.00006294       0.00027494      -3.25901673
H        4.48300650       5.09930213       6.19012962      -0.02681812       0.08468099       0.03553489       0.00019758      -0.00014706      -0.00033054      -0.00128042       0.00053579       0.00040024      -4.25092857
H        3.40604783       5.28294228       6.38795291      -0.02534750       0.01092861       0.00583512       0.00079739       0.00052073       0.00035047       0.00066759       0.00028949       0.00043284      -2.67970644
H        5.31292476       5.79741457       6.46958739       0.00641409      -0.01808180       0.00088182       0.00144359       0.00021333       0.00036482       0.00035582      -0.00066542       0.00004776      -2.74395317
H        5.46476414       5.01485967       5.69052212      -0.07366925      -0.05139345      -0.02292975      -0.00200994      -0.00039984       0.00048198      -0.00027199       0.00003329      -0.00069197      -4.70855905
H        4.20515428       6.13212247       6.39619668      -0.00138026       0.01179965       0.01854162       0.00158577      -0.00009588       0.00046903       0.00019301      -0.00006936       0.00046672      -2.73368980
H        5.38539658       5.52601762       4.64520746      -0.06440512       0.03211154       0.01276231      -0.00087225      -0.00018419       0.00108934       0.00004334       0.00077670      -0.00000298      -4.73724663
H        4.33516180       5.89250426       4.50892298       0.00417441       0.02634981      -0.02151463       0.00079752       0.00033896       0.00031026      -0.00006609       0.00021208       0.00024999      -3.39340418
H        3.79598069       5.69381704       5.45752104       0.01520811      -0.07719702       0.02083895      -0.00153453       0.00033510      -0.00093328      -0.00015706       0.00107710      -0.00065180      -4.64807266
H        6.36623109       6.01430574       4.48193852      -0.04506086      -0.04822568      -0.02045534       0.00034444       0.00023872       0.00013346      -0.00011955      -0.00019564       0.00013999      -1.72294056
H        2.83532238       5.16684416       5.39612154       0.01312699      -0.01402292       0.00156944       0.00041530      -0.00027909       0.00100030       0.00022891      -0.00016631      -0.00003604      -2.21703898
H        4.56100833       5.00638251       5.12095669       0.07367306       0.06932284       0.01798202      -0.00609286      -0.00514886      -0.00618416      -0.00082939      -0.00010914      -0.00055258      -5.59465795
H        6.30350919       5.01377308       4.97996926      -0.04002410       0.02111947      -0.00673366       0.00049058       0.00052131      -0.00003763       0.00057656       0.00013794       0.00013020      -3.19226760
H        3.71634390       4.53618898       5.59909911       0.01414192       0.01417794      -0.00665042      -0.00062907       0.00125155       0.00081687       0.00054440      -0.00002823      -0.00005450      -3.72252998
H        5.37178127       4.41353193       4.71553872       0.12199235       0.01012463       0.01724989       0.00103467       0.00057986       0.00055859       0.00041368       0.00029260       0.00101613      -3.76695107
H        5.96066352       5.96737874       5.51986374      -0.03201996      -0.05102794      -0.02765361       0.00053823       0.00006321       0.00100985       0.00063769      -0.00007868      -0.00019006      -3.23431229
H        3.61826245       5.01504333       4.58064802       0.04212660      -0.00951705       0.01234059       0.00082914       0.00080029       0.00094218       0.00013512      -0.00084066       0.00000165      -3.71852830
H        6.03481972       4.08053503       5.54332227       0.01423805      -0.04264579       0.00959750       0.00044688       0.00037139       0.00003626      -0.00014664       0.00004544      -0.00010977      -1.77019616
H        4.25248580       4.07320370       4.68445057      -0.01349068       0.03978646      -0.02981630       0.00178011       0.00012254       0.00074276      -0.00022927      -0.00043985      -0.00039454      -2.75280805
