20
Lattice="10.0 0.0 0.0 0.0 10.0 0.0 0.0 0.0 10.0" Properties=species:S:1:pos:R:3:forces:R:3:stresses:R:6:energies:R:1 energy=-69.59258093937164 stress="0.0011942367323935217 -0.0003219429213080444 -0.0002942058582851015 -0.0003219429213080444 0.0011511651639235225 -0.00015997502022795332 -0.0002942058582851015 -0.00015997502022795332 0.0004456799839332042" free_energy=-69.59258093937164 pbc="F F F"
H        4.89184662       5.97715903       5.47897763      -0.14616893       0.02633240       0.09978600      -0.00083338       0.00058774      -0.00090213      -0.00082151      -0.00081755      -0.00022861      -4.75123453
H        4.62687773       4.88991121       4.04786577      -0.29849420      -0.10245187       0.37190364       0.00156925       0.00054537       0.00016368       0.00003520       0.00000312       0.00011386      -3.25579133
H        4.47032728       5.13085246       6.19167473      -0.08956187       0.47337345      -0.03399896       0.00047634      -0.00005475      -0.00020718      -0.00130710       0.00044695       0.00036762      -4.24419206
H        3.40275380       5.38393085       6.37721633       0.16826864      -0.04172513      -0.18311579       0.00093943       0.00051959       0.00039601       0.00065084       0.00028613       0.00039709      -2.68099561
H        5.33481161       5.79556195       6.45592160      -0.00275641      -0.03177861       0.06841952       0.00145014       0.00021648       0.00030905       0.00037122      -0.00063650       0.00001877      -2.74662273
H        5.45127712       4.98794548       5.69938752      -0.23281827       0.01524075       0.02525334      -0.00189678      -0.00040266       0.00040035      -0.00035401       0.00000261      -0.00062306      -4.72023095
H        4.24927983       6.18463736       6.36977771       0.03727812      -0.13396553      -0.01850965       0.00159645      -0.00004462       0.00045372       0.00022952      -0.00010006       0.00034869      -2.73973886
H        5.40061851       5.47192654       4.64059536       0.10487404      -0.23183455       0.13640749      -0.00111589      -0.00010410       0.00102240       0.00000355       0.00075294       0.00001323      -4.73742782
H        4.37408421       5.88893066       4.48679208      -0.00520070      -0.06344305      -0.02746709       0.00075888       0.00036463       0.00038855      -0.00003165       0.00016888       0.00019882      -3.39433770
H        3.81919461       5.75199070       5.43905096       0.28672605      -0.67803249      -0.20057617      -0.00146964       0.00060694      -0.00074498      -0.00023007       0.00100791      -0.00062886      -4.64434655
H        6.39991228       5.91060855       4.46506918       0.08017969       0.05934621       0.00659120       0.00029196       0.00018784       0.00016996      -0.00009795      -0.00020492       0.00008955      -1.72356943
H        2.83183982       5.27600975       5.38335419       0.06975986      -0.01606416      -0.02255408       0.00043247      -0.00026446       0.00101988       0.00027707      -0.00016738      -0.00008114      -2.21441454
H        4.54825425       5.00997002       5.12574166       0.03964213       0.25680349       0.15865078      -0.00594035      -0.00500861      -0.00603463      -0.00077445      -0.00018511      -0.00064604      -5.60393262
H        6.29397574       4.93020129       4.99363753      -0.12577902      -0.11202088       0.01535658       0.00054872       0.00046960      -0.00006514       0.00056090       0.00014247       0.00016692      -3.19345507
H        3.67365289       4.60105917       5.60778287       0.08880565       0.14741421       0.16399414      -0.00061120       0.00132701       0.00074032       0.00054711      -0.00000463       0.00008619      -3.71997907
H        5.33390954       4.36028245       4.75495318      -0.16642038       0.33078731      -0.27295842       0.00135991       0.00069915       0.00052229       0.00027515       0.00033150       0.00094032      -3.76655394
H        5.99507665       5.90989351       5.50558304       0.00101793      -0.02951718      -0.05758082       0.00048978       0.00009883       0.00101913       0.00064061      -0.00004809      -0.00018629      -3.23574573
H        3.61183469       5.05647425       4.57788844       0.07480455      -0.01730717      -0.01290442       0.00090604       0.00082222       0.00096845       0.00026741      -0.00090687      -0.00008013      -3.71150273
H        5.99135038       4.03009488       5.59072890      -0.04623030      -0.01094949      -0.03178513       0.00042852       0.00037936       0.00007577      -0.00015488       0.00006684      -0.00012896      -1.76507980
H        4.19088407       4.08253751       4.71551197       0.16207343       0.15979230      -0.18491215       0.00181359       0.00020559       0.00075020      -0.00024693      -0.00043244      -0.00045991      -2.74342989
