20
Lattice="10.0 0.0 0.0 0.0 10.0 0.0 0.0 0.0 10.0" Properties=species:S:1:pos:R:3:forces:R:3:stresses:R:6:energies:R:1 energy=-69.30388056527096 stress="0.0010709403253610838 -0.0018398388960179967 0.0005876409569260489 -0.0018398388960179967 0.003564344639423994 -0.0008513632337513132 0.0005876409569260489 -0.0008513632337513132 0.002219606851852199" free_energy=-69.30388056527096 pbc="F F F"
H        5.01768828       5.95468311       5.39818256       0.06643774      -0.25302773      -0.37032943      -0.00116438       0.00047025      -0.00027368      -0.00086348      -0.00073859       0.00009051      -4.72022456
H        4.58399202       4.74324364       4.10175471      -1.62863337       1.09964210       0.29485528       0.00144193       0.00089526       0.00016698       0.00019634      -0.00022759      -0.00071784      -3.20252101
H        4.46978091       5.23337140       6.20882871      -0.32691659       1.67845348      -0.67711124       0.00105885       0.00028586       0.00042586      -0.00141776       0.00032945       0.00030724      -4.15245019
H        3.47328995       5.72286248       6.34075238       0.37066410      -0.12674338      -0.24659556       0.00101956       0.00025675       0.00034351       0.00043411       0.00014461       0.00011499      -2.72148326
H        5.43527320       5.79753952       6.39414241       0.33415597       0.07426671       0.08071275       0.00135811      -0.00002562       0.00033001       0.00024452      -0.00060657       0.00009346      -2.73985286
H        5.41196304       4.92721380       5.72258088      -1.21313692      -0.31419811      -0.48330241      -0.00174151      -0.00105325       0.00004097      -0.00079166       0.00039121      -0.00050326      -4.74606510
H        4.44164493       6.32778100       6.27440759      -0.32278137       0.19461617       0.04055713       0.00099796      -0.00002749       0.00027576       0.00035215      -0.00004694       0.00009489      -2.78618551
H        5.40787602       5.28088519       4.61528777       1.63060491      -1.36158160       1.67191525      -0.00198131       0.00025207       0.00088900      -0.00024453       0.00050474       0.00026173      -4.72116217
H        4.47930260       5.83960671       4.40345536      -0.26698895      -0.21617713       0.20704068       0.00044631       0.00060854       0.00078109       0.00023239       0.00016134       0.00024368      -3.37757934
H        3.92745881       5.94318877       5.36659737       0.16517572      -2.33700615       0.10595408      -0.00167033       0.00141432      -0.00005086      -0.00063302       0.00080469      -0.00036207      -4.56008639
H        6.45260995       5.52487343       4.37265391       0.44000813       0.40509273       0.02502477       0.00011824       0.00004872       0.00028833       0.00004407      -0.00020823      -0.00004688      -1.72362113
H        2.87478131       5.64235451       5.37080009      -0.54769882       0.03391193      -0.13167362       0.00013308      -0.00022641       0.00075941       0.00038473      -0.00009427      -0.00020241      -2.21812614
H        4.49868834       5.03267827       5.15045375       0.62720327       0.77051021       0.14536868      -0.00507375      -0.00428697      -0.00508162      -0.00050082       0.00033320      -0.00103685      -5.66837861
H        6.21975773       4.65412949       5.02846262      -0.62828388      -0.55453252      -0.19442442       0.00085491       0.00034082      -0.00029497       0.00047330       0.00031473       0.00022031      -3.19150964
H        3.57057224       4.83918865       5.65654967       0.03655902       0.07614307       0.30461105      -0.00065536       0.00130575       0.00049310       0.00033388       0.00026643       0.00058176      -3.68685370
H        5.16376935       4.19975624       4.91226650      -0.60871606       1.71882937      -1.64982189       0.00212489       0.00112031       0.00020195      -0.00017463       0.00003921       0.00079247      -3.74313170
H        6.09501706       5.71513482       5.41848300       0.00877816       0.19222742      -0.12670383       0.00042295       0.00015817       0.00119424       0.00072784       0.00001909      -0.00020820      -3.21494377
H        3.57185495       5.20143202       4.58832308       1.77081313      -1.00884994       0.44764254       0.00149172       0.00120195       0.00115089       0.00049197      -0.00060765      -0.00053431      -3.65557746
H        5.82220870       3.90072952       5.75410552       0.12671231      -0.11407143       0.31402268       0.00026727       0.00036454       0.00000618      -0.00011221      -0.00002343      -0.00011712      -1.75482762
H        3.97423219       4.14932516       4.82942306      -0.03395650       0.04249482       0.24225751       0.00162180       0.00046078       0.00057345      -0.00002854      -0.00016777      -0.00091193      -2.71930040
