20
Lattice="10.0 0.0 0.0 0.0 10.0 0.0 0.0 0.0 10.0" Properties=species:S:1:pos:R:3:forces:R:3:stresses:R:6:energies:R:1 energy=-69.60349088481115 stress="3.325114516926673e-05 -8.139449507070068e-06 -9.062087124635125e-06 -8.139449507070068e-06 -1.5101874178858668e-05 -1.4673346426859902e-05 -9.062087124635125e-06 -1.4673346426859902e-05 1.6331883942560566e-05" free_energy=-69.60349088481115 pbc="F F F"
H        4.85481180       5.98066163       5.50073737      -0.00223440       0.01219230       0.01129929      -0.00076468       0.00059753      -0.00094303      -0.00078973      -0.00077134      -0.00031903      -4.75553883
H        4.62499044       4.92538970       4.03954983      -0.02534540       0.00201005       0.00993815       0.00142836       0.00041550       0.00005072       0.00010648       0.00004827       0.00026241      -3.26006453
H        4.48570961       5.10069050       6.19138843      -0.00334141       0.00342528      -0.00279812       0.00018578      -0.00018871      -0.00031892      -0.00127520       0.00051837       0.00039711      -4.25408725
H        3.40914560       5.28244261       6.39338623      -0.00082785       0.00530753      -0.00092999       0.00080588       0.00053732       0.00035051       0.00067614       0.00028714       0.00043825      -2.67770475
H        5.31792617       5.79642705       6.46795306      -0.00801304       0.00162718      -0.00132109       0.00145182       0.00021203       0.00037364       0.00035842      -0.00067421       0.00003231      -2.74242123
H        5.46578855       5.01307222       5.68862193      -0.03059178      -0.02036710      -0.00303062      -0.00201253      -0.00035484       0.00049173      -0.00027513       0.00002425      -0.00070578      -4.70533669
H        4.20859152       6.13300605       6.39923283       0.01510642      -0.00015362      -0.00386522       0.00161971      -0.00009884       0.00048339       0.00019062      -0.00007095       0.00047307      -2.72993316
H        5.38232679       5.52724712       4.64333992      -0.01598350       0.00214318      -0.02294262      -0.00094447      -0.00021504       0.00105344       0.00002384       0.00079084      -0.00005715      -4.73546096
H        4.33196197       5.89397931       4.51136781       0.00200608      -0.00573922       0.00773943       0.00079145       0.00035514       0.00032794      -0.00006979       0.00020750       0.00024459      -3.39383387
H        3.79671795       5.69314962       5.46204189      -0.00064022      -0.00944643       0.00104968      -0.00153598       0.00031244      -0.00094493      -0.00014412       0.00107318      -0.00064188      -4.65047530
H        6.36260274       6.01247108       4.47454175       0.00403990       0.00294912       0.00314699       0.00031417       0.00022144       0.00015620      -0.00011168      -0.00019904       0.00012461      -1.72292840
H        2.83612393       5.16562616       5.40306298       0.00016298       0.00065502      -0.00152848       0.00040881      -0.00028093       0.00099956       0.00022888      -0.00016633      -0.00002814      -2.21721717
H        4.56095239       5.00694529       5.12158992       0.02378256       0.00850820       0.00385255      -0.00614105      -0.00515050      -0.00615791      -0.00081926      -0.00011364      -0.00058530      -5.59399266
H        6.30137140       5.01323912       4.97437333       0.01219560      -0.00003601      -0.00118591       0.00047003       0.00048409      -0.00004617       0.00055534       0.00013569       0.00010958      -3.19504396
H        3.71850217       4.53618677       5.60277338       0.00255163      -0.00219101      -0.00372901      -0.00063910       0.00124422       0.00083590       0.00055426      -0.00002899      -0.00006012      -3.72259200
H        5.37072230       4.41474987       4.71203331      -0.00134223      -0.02036778       0.01445083       0.00102405       0.00056938       0.00056043       0.00040759       0.00027750       0.00098473      -3.76827776
H        5.96119824       5.96546697       5.51497105       0.00789008       0.01042309       0.00479747       0.00052618       0.00004140       0.00100600       0.00061273      -0.00009719      -0.00018249      -3.23728578
H        3.61636667       5.01597542       4.58477016       0.01395802      -0.00706562       0.00014322       0.00081211       0.00078138       0.00094997       0.00012952      -0.00084548       0.00000828      -3.71889818
H        6.03531509       4.07851916       5.53737442      -0.00044952       0.00667335      -0.00264847       0.00045301       0.00039415       0.00004011      -0.00014979       0.00004293      -0.00011585      -1.76974582
H        4.25063633       4.07473194       4.68440092       0.00707606       0.00945250      -0.01243808       0.00177973       0.00010772       0.00074775      -0.00022377      -0.00044754      -0.00038733      -2.75265258
