20
Lattice="10.0 0.0 0.0 0.0 10.0 0.0 0.0 0.0 10.0" Properties=species:S:1:pos:R:3:forces:R:3:stresses:R:6:energies:R:1 energy=-69.3154455789502 stress="0.00149614896381331 -0.001977671707103113 0.00036363052594094833 -0.001977671707103113 0.003495095595287307 -0.0005825620403669647 0.00036363052594094833 -0.0005825620403669647 0.0020390687909714197" free_energy=-69.3154455789502 pbc="F F F"
H        5.01418848       5.95202117       5.39853035       0.25652618       0.04378137      -0.10183301      -0.00114805       0.00034078      -0.00027345      -0.00087452      -0.00077571       0.00001690      -4.73046982
H        4.58346497       4.74437979       4.10155984      -1.71724513       1.09672714       0.00522954       0.00138706       0.00082906       0.00004945       0.00021112      -0.00025672      -0.00073626      -3.19802289
H        4.47369473       5.23408603       6.20832285      -0.39660773       1.77449027      -0.57560743       0.00106022       0.00026059       0.00040152      -0.00141836       0.00031033       0.00026181      -4.16478517
H        3.47342332       5.71923139       6.34730102       0.45736686      -0.23792923      -0.19679684       0.00109009       0.00030001       0.00030350       0.00046716       0.00016947       0.00009720      -2.71686884
H        5.43949082       5.79860688       6.39270583       0.12744406       0.10281484      -0.03032865       0.00142531       0.00002856       0.00036948       0.00024951      -0.00057707       0.00005954      -2.74154310
H        5.41399379       4.92805592       5.71964397      -0.87300629      -0.49109603      -0.59695192      -0.00169067      -0.00089078       0.00010564      -0.00073136       0.00035605      -0.00047292      -4.75264689
H        4.44066721       6.32806110       6.27687165      -0.18242930       0.07007955      -0.01825825       0.00110785      -0.00000118       0.00031542       0.00035475      -0.00005971       0.00006876      -2.78254522
H        5.40616310       5.28225910       4.61350998       1.73604930      -1.18146230       1.66702021      -0.00207091       0.00019920       0.00086492      -0.00021573       0.00050826       0.00027485      -4.71797787
H        4.47541189       5.83869315       4.40674868      -0.44776256      -0.13480597       0.15909487       0.00046256       0.00057174       0.00075934       0.00025522       0.00010110       0.00026126      -3.37953315
H        3.92371930       5.93758205       5.37268897       0.23928252      -2.33114689      -0.09127182      -0.00156992       0.00140165      -0.00008421      -0.00060677       0.00080886      -0.00039062      -4.57066417
H        6.44753291       5.53866809       4.36964356       0.44583163       0.33614798       0.00690158       0.00011617       0.00007426       0.00027014       0.00001415      -0.00020240      -0.00004126      -1.72429733
H        2.87087218       5.63126019       5.37951436      -0.38398327       0.06269109      -0.08319707       0.00021200      -0.00021081       0.00076637       0.00037998      -0.00008058      -0.00017869      -2.21863382
H        4.49930482       5.03035456       5.15017959       0.39196115       0.60413136       0.28393075      -0.00512878      -0.00441276      -0.00518687      -0.00052363       0.00032207      -0.00111684      -5.65798702
H        6.22238849       4.66132088       5.02170516      -0.65307871      -0.50795093      -0.14379423       0.00088894       0.00036952      -0.00026895       0.00050229       0.00026297       0.00026721      -3.18887177
H        3.57553604       4.83455381       5.66323822      -0.08144629       0.07765174       0.15142885      -0.00069511       0.00133746       0.00055179       0.00034245       0.00023850       0.00053295      -3.69001243
H        5.16544064       4.20011348       4.90646985      -0.50249540       1.78481905      -1.48906092       0.00215297       0.00113290       0.00018969      -0.00010166       0.00002208       0.00084798      -3.73688418
H        6.09457152       5.72112777       5.41701218      -0.24266192       0.01138809      -0.12239102       0.00051200       0.00023555       0.00117929       0.00072198       0.00004914      -0.00015937      -3.21763108
H        3.56845296       5.19845883       4.59378001       1.81301125      -0.93239980       0.43089218       0.00151759       0.00112632       0.00118249       0.00047160      -0.00062034      -0.00049643      -3.65507160
H        5.83025283       3.90131317       5.74222966       0.09083291      -0.00615486       0.37890694       0.00026130       0.00042908      -0.00002326      -0.00009777      -0.00003214      -0.00015005      -1.75467615
H        3.97319158       4.14983039       4.82585523      -0.07758927      -0.14177648       0.36608625       0.00160552       0.00037395       0.00056678       0.00001703      -0.00018054      -0.00092368      -2.71632308
