20
Lattice="10.0 0.0 0.0 0.0 10.0 0.0 0.0 0.0 10.0" Properties=species:S:1:pos:R:3:forces:R:3:stresses:R:6:energies:R:1 energy=-32.095793195869064 stress="0.01603953562479645 0.003879579365971065 -0.005406237583600701 0.003879579365971065 0.013238985236509503 0.005661201610302173 -0.005406237583600701 0.005661201610302173 0.011115144477327298" free_energy=-32.095793195869064 pbc="F F F"
H        5.07643338       6.10239995       6.15326300      -2.60936174      -1.90388078       3.08718704       0.00186952       0.00152713       0.00212571       0.00039940      -0.00007498       0.00019998      -2.45696833
H        4.33152653       3.80857089       4.07434063       0.03477013      -0.31265667      -3.46635909       0.00044238      -0.00113072      -0.00157284       0.00069254       0.00015550      -0.00039701      -1.99916320
H        4.43171649       5.49839169       6.86011927       2.47499541       1.30351050      -0.21694900       0.00199400       0.00149426       0.00111603       0.00048424      -0.00021699       0.00056716      -3.35411275
H        3.38755440       5.23369288       7.27428963       1.92580716       0.88186282      -1.51789959       0.00108089       0.00049702       0.00071136      -0.00016495      -0.00052879       0.00039099      -1.17311517
H        5.50417202       5.94343520       7.31074612      -4.12301284      -1.29620883      -4.72462951       0.00205639       0.00092573       0.00213669       0.00041114       0.00130702       0.00017987      -1.46679178
H        5.44429832       5.10004272       6.51344930      -1.79259915       1.78705482       0.64251925       0.00106135       0.00086249       0.00091429       0.00055365       0.00012627      -0.00029046      -2.07478064
H        4.26019721       6.65532401       6.81753084       1.69441722      -4.83342998      -1.28593412       0.00164229       0.00236248       0.00069625       0.00039738      -0.00015889      -0.00050397      -1.70403526
H        5.39000859       5.23632026       3.64310959      -5.93908013      -3.49243485      -0.66795074      -0.00037001       0.00059334       0.00028266      -0.00134186      -0.00189393       0.00008304      -1.21943001
H        4.01700777       4.85639239       4.05192563       3.49597278       3.30262077       0.12104584       0.00068121      -0.00113129       0.00080527      -0.00000999       0.00041339      -0.00020028      -1.84137945
H        3.52214318       5.89588512       6.36709596       2.06157038      -0.39631041      -0.51045606       0.00136684       0.00110026       0.00054360       0.00060241      -0.00037323       0.00009931      -1.91448190
H        6.58044053       6.31492317       3.28420239      -1.00570415      -1.43628492       2.08911760       0.00041380       0.00065787       0.00093394      -0.00051927      -0.00031826       0.00049051      -1.05384231
H        2.91692639       6.96973045       3.18724425       0.01538549      -0.02955668       0.01209324       0.00000846       0.00003123       0.00000523      -0.00001278       0.00000665      -0.00001626      -0.00477585
H        4.56338896       5.08432693       5.79468184      -1.10580778       1.54777889       1.00093189       0.00234932       0.00231316       0.00280398       0.00166754      -0.00007079       0.00057322      -2.34077652
H        6.21880958       5.63611575       4.18092299       5.40761623       4.65832495       1.85819619      -0.00099466       0.00117043       0.00008394      -0.00100498      -0.00151078       0.00015470      -1.46250863
H        3.39662393       4.38392274       5.57906437       3.23533749       0.56000559       0.39130337       0.00153321       0.00148557       0.00062519       0.00069360      -0.00038377       0.00031038      -1.52186748
H        5.00520302       4.54496900       4.55241399      -0.94444804       2.75999504       0.00718369       0.00171065       0.00102735       0.00201283      -0.00059610      -0.00081887       0.00038236      -1.97513350
H        6.79738653       6.66889437       4.33662342      -1.24406899      -2.10704379      -0.72988704       0.00039627       0.00106052       0.00028538       0.00024173       0.00013473       0.00062922      -0.97001504
H        3.29152895       4.18227870       4.49822204      -3.10184386       1.20444006      -3.32501195      -0.00038807      -0.00168519      -0.00134998       0.00144475      -0.00080019       0.00030312      -1.95496601
H        6.83408448       3.01672275       6.41238519      -0.02124544       0.03184738       0.00154495       0.00001476       0.00003317       0.00000008       0.00000161      -0.00000107      -0.00002213      -0.00529541
H        3.92231133       3.49763878       5.01588046       1.54129983      -2.22963392       7.23395403      -0.00082906       0.00004416      -0.00204446       0.00172116      -0.00039926       0.00094582      -1.60235395
