20
Lattice="10.0 0.0 0.0 0.0 10.0 0.0 0.0 0.0 10.0" Properties=species:S:1:pos:R:3:forces:R:3:stresses:R:6:energies:R:1 energy=-55.02935049705567 stress="8.11299115294028e-06 0.004150423503022065 0.0021715437394765847 0.004150423503022065 0.003600170187798325 -0.0020503134182191397 0.0021715437394765847 -0.0020503134182191397 0.0016437331539879835" free_energy=-55.02935049705567 pbc="F F F"
H        4.89535216       5.99975554       5.64795315      -0.30654891      -0.26132203       0.37264150      -0.00227060       0.00048763      -0.00077258      -0.00073000      -0.00002993      -0.00003354      -4.24052263
H        4.43050301       4.06190502       3.94749918       6.00627881      -3.37387763       0.10751173      -0.00154984      -0.00129489       0.00084465      -0.00007484       0.00110381       0.00107488      -2.06881712
H        4.50336173       5.25540238       6.44891582       4.05649115      -1.81680475      -2.16703903       0.00033700      -0.00079449       0.00014705      -0.00099943      -0.00035072       0.00031615      -3.57584785
H        3.54610909       5.62935784       6.80974590      -0.85453934       1.25246876      -0.11686233      -0.00021229       0.00014669       0.00049101      -0.00003081      -0.00002235       0.00065479      -1.67671946
H        5.45368395       5.81932436       6.57865701      -0.53075102       0.48403872       0.00541426       0.00097551       0.00021707       0.00039124       0.00030937      -0.00030954      -0.00028644      -2.73114753
H        5.49705161       5.03059243       5.78652875      -1.78801190      -1.44190689      -0.15959710       0.00010067       0.00052412       0.00170365       0.00066652      -0.00062186      -0.00093557      -4.05046407
H        4.41555089       6.33543843       6.58865284       0.06480378       0.26805385      -0.08194509       0.00134542      -0.00037908       0.00034331       0.00019442       0.00008199       0.00000996      -2.62291401
H        5.29159339       5.49246765       4.76816211       0.01959061      -3.85777094       1.14580416       0.00130071       0.00165133       0.00088464      -0.00023197       0.00083872       0.00089419      -4.16239328
H        4.33260823       5.06437735       4.34157812       0.44622922       0.61254149      -0.66525557       0.00153128       0.00036382      -0.00135993      -0.00091778       0.00044952       0.00029616      -3.54079370
H        3.82446062       5.84621833       5.74684678      -0.29372777      -1.31407129       0.65066877      -0.00025353       0.00067280       0.00094101       0.00034995       0.00025881      -0.00071277      -3.27288246
H        6.20038865       6.08067594       4.50546303      -0.30635890      -0.17029237       0.06335480       0.00036059       0.00021131       0.00017106      -0.00014015      -0.00028427       0.00014592      -1.68738148
H        3.00274364       6.70950273       3.33205619       0.06742448      -0.12714876       0.10201617       0.00004012       0.00011300       0.00007856      -0.00007876       0.00004364      -0.00005298      -0.02509335
H        4.49112740       5.00564372       5.39577968      -1.90614711       3.23722190       3.87778762      -0.00270488      -0.00194491      -0.00445783      -0.00085728      -0.00113265       0.00024052      -4.69618331
H        6.31431506       5.09037911       5.02157091      -2.31660756      -0.94656921      -0.10852807       0.00167309       0.00038218       0.00023213       0.00004544      -0.00001666       0.00035666      -2.39463210
H        3.45817196       5.07140733       5.03221619      -0.41924323      -0.61319077      -0.01602399       0.00011043       0.00052213       0.00042214       0.00021255      -0.00005127      -0.00015229      -2.81489070
H        5.13187205       4.31235541       4.87086085       1.75852711       4.03310762      -2.31010444       0.00156046       0.00251258       0.00173901       0.00009026       0.00199635       0.00104305      -3.16903626
H        5.98517952       5.98846335       5.59382385       0.69724959       0.90912088      -0.58678035      -0.00028680      -0.00059695       0.00057832       0.00049773       0.00052700       0.00021491      -3.10699021
H        3.42894224       4.39206817       4.14115539      -4.05892471       2.83212817      -0.09134977      -0.00170192       0.00004150      -0.00041556       0.00029991       0.00034436       0.00128748      -2.06964089
H        6.64136423       3.34461437       6.35399211      -0.16110056       0.25479204      -0.14041392       0.00010518       0.00022460       0.00008411      -0.00010801       0.00006772      -0.00012875      -0.04756570
H        4.04738215       4.10002826       4.99605303      -0.17463374       0.03948122       0.11870066      -0.00045249       0.00053974      -0.00040225      -0.00054745      -0.00072113      -0.00008192      -3.07543436
