20
Lattice="10.0 0.0 0.0 0.0 10.0 0.0 0.0 0.0 10.0" Properties=species:S:1:pos:R:3:forces:R:3:stresses:R:6:energies:R:1 energy=-69.19215658202378 stress="0.0025084332035990482 -0.0023570140438767943 -0.0008448344228517905 -0.0023570140438767943 0.0033545197735589762 -0.0027011155044607896 -0.0008448344228517905 -0.0027011155044607896 -5.609078331350089e-05" free_energy=-69.19215658202378 pbc="F F F"
H        5.02706093       5.95515042       5.40307072       0.02991804       0.26519770       0.18725791      -0.00093716       0.00025006      -0.00003898      -0.00077731      -0.00081701       0.00009888      -4.70748439
H        4.59551054       4.73228979       4.11430985      -1.35188844       0.75304369       0.19683578       0.00151498       0.00102505       0.00006874      -0.00000869      -0.00011224      -0.00061132      -3.22472948
H        4.44046260       5.22048016       6.20087142      -0.52829261       2.73138388       1.04367460       0.00156881       0.00061402      -0.00030548      -0.00148275       0.00038850       0.00030426      -4.08951563
H        3.43883711       5.74202823       6.29204388       0.59428722       0.15835845       0.25671776       0.00128736      -0.00004884       0.00020136       0.00020759       0.00028617      -0.00012532      -2.71361228
H        5.41678932       5.78828774       6.41355846      -0.28374715       0.26739892      -0.32474768       0.00177940      -0.00008076       0.00052694       0.00011416      -0.00052828       0.00017333      -2.70237097
H        5.39617344       4.93324968       5.73253978       0.13643903      -0.52034977       0.20557667      -0.00215025      -0.00157015      -0.00051223      -0.00094601       0.00001478      -0.00029510      -4.74779695
H        4.42194116       6.31623618       6.27067381       0.20046967       0.04254459      -0.07289146       0.00101445       0.00004511       0.00031192       0.00039748      -0.00011823      -0.00005502      -2.79733067
H        5.42169801       5.27045870       4.62979690       2.03556969      -1.83131450       1.33390654      -0.00236497       0.00000154       0.00065897      -0.00012876       0.00027627       0.00051282      -4.72597044
H        4.51821671       5.83806725       4.39489361      -1.25792731       0.34529189      -0.07084002       0.00013284       0.00044696       0.00073660       0.00033744       0.00001793       0.00048176      -3.36641267
H        3.93608196       5.95762274       5.34048566      -0.49017201      -2.24837618      -0.27079459      -0.00138130       0.00130336      -0.00009903      -0.00069846       0.00073545      -0.00011936      -4.54643858
H        6.47273486       5.48830850       4.38738052       0.35222637       0.22185826       0.15771043       0.00015086       0.00012427       0.00032614      -0.00000250      -0.00022203      -0.00001833      -1.72361504
H        2.86839065       5.68730173       5.29508091       0.88103925      -0.55834104       0.23871960       0.00070842       0.00010938       0.00093064       0.00029667       0.00000631      -0.00039407      -2.21375826
H        4.49916040       5.04188172       5.15084454       0.38037363      -0.60237700      -0.78229818      -0.00519461      -0.00438269      -0.00620229      -0.00058980      -0.00025431      -0.00114108      -5.63002416
H        6.21585182       4.63421481       5.06118647       0.06273137      -0.31773224      -0.08690061       0.00049122       0.00030091      -0.00021100       0.00034256       0.00022029       0.00009419      -3.20660555
H        3.54191534       4.86529707       5.62540850       0.31701422       0.00699875      -0.66070637      -0.00010199       0.00118050       0.00019788      -0.00005390       0.00013251       0.00047814      -3.70212699
H        5.17818004       4.19597273       4.93474899      -1.87980272       1.69683277      -1.56788880       0.00205320       0.00125235       0.00030488      -0.00034498       0.00006047       0.00018620      -3.77318075
H        6.10317158       5.70237423       5.42502417      -0.21440966       0.23986953       0.48296097       0.00051220       0.00018867       0.00121315       0.00060097      -0.00017730      -0.00020192      -3.19750214
H        3.59854806       5.20884298       4.55923479       1.25719863      -1.16704126       0.25674966       0.00132860       0.00156242       0.00091088       0.00048213      -0.00069284      -0.00061315      -3.65407886
H        5.80686023       3.91242583       5.81582569      -0.11200648      -0.00498319      -0.19939424       0.00038547       0.00034914       0.00024502      -0.00019956       0.00010239      -0.00010944      -1.76065029
H        3.99417684       4.13948726       4.86053227      -0.12902073       0.52173674      -0.32364796       0.00171091       0.00068324       0.00067979      -0.00024738      -0.00016367      -0.00100248      -2.70895248
