20
Lattice="10.0 0.0 0.0 0.0 10.0 0.0 0.0 0.0 10.0" Properties=species:S:1:pos:R:3:forces:R:3:stresses:R:6:energies:R:1 energy=-66.98183025284891 stress="0.004363851400211529 -0.002078761525635878 0.0008156158197490779 -0.002078761525635878 -0.0035242083610563138 0.0020666508258599457 0.0008156158197490779 0.0020666508258599457 -0.002144153052558737" free_energy=-66.98183025284891 pbc="F F F"
H        5.00350359       5.92597494       5.44682557      -0.27124658      -0.07257871      -0.21554212      -0.00209290       0.00083306      -0.00020038      -0.00039798       0.00018278       0.00051138      -4.73772884
H        4.55622141       4.68577298       4.17909436      -1.75409009       2.17425656      -2.01239464      -0.00072033       0.00050772      -0.00034392       0.00082793      -0.00058339      -0.00034878      -3.27317006
H        4.55194060       5.28345563       6.27629761      -1.11506761      -1.01944743       0.79750342      -0.00022634      -0.00125208      -0.00022467      -0.00096717       0.00071621       0.00078197      -3.91166720
H        3.57509550       5.70413479       6.57155904      -0.08837756      -0.30946925      -0.10177719       0.00067151       0.00072727       0.00045069       0.00087009       0.00031602       0.00064654      -1.96859585
H        5.53807360       5.80676691       6.39432553      -0.43499204      -0.20408448      -0.21744591       0.00119326       0.00051666       0.00042696       0.00052065      -0.00044109      -0.00023945      -2.75658145
H        5.41798214       4.90629534       5.74018378       0.12291129       0.48012213       0.11121159      -0.00161428      -0.00083128      -0.00041422      -0.00060175       0.00090456      -0.00029620      -4.75166768
H        4.52929584       6.36714155       6.38115238       0.85759461       0.26761440       0.11491905       0.00152309      -0.00032668       0.00049499       0.00015935      -0.00064151      -0.00014720      -2.65449910
H        5.35009627       5.25604652       4.66708510      -0.53268531       0.67926321      -0.30258341       0.00008804      -0.00082722      -0.00020493      -0.00090245      -0.00005668      -0.00052965      -4.75054700
H        4.31441144       5.77204669       4.53613191       0.99277383       0.01137640      -0.71452209       0.00274676       0.00063826       0.00031867       0.00091400       0.00008497      -0.00049026      -3.83495394
H        3.93863642       5.91398689       5.57013117       0.13146024       1.01279684      -0.12847341      -0.00337919      -0.00064547      -0.00257073       0.00031744      -0.00031266      -0.00108678      -4.22540266
H        6.38041548       5.50148313       4.32451498      -0.47644558       0.56430670       0.19058043       0.00054561      -0.00006109       0.00037598       0.00017199      -0.00033798       0.00006803      -1.72419359
H        3.18621807       5.95384686       4.79830004      -0.21838412       0.00161184      -0.08514103       0.00076499       0.00009757      -0.00040113      -0.00112575      -0.00061039      -0.00031090      -2.16095690
H        4.44027837       4.97402372       5.24476554       1.17301395       0.04630861      -0.15058073      -0.00102127      -0.00236449      -0.00238083       0.00015419       0.00031703      -0.00055196      -5.59471917
H        6.21319494       4.65168073       5.01466348      -0.69333890      -0.85625307      -0.19367718       0.00084824      -0.00027412      -0.00045124       0.00063467       0.00026884       0.00004415      -3.19161271
H        3.37229645       4.99036721       5.45683549      -0.46937480       0.20317415       0.20911624       0.00030321       0.00111985       0.00212554       0.00029425       0.00024738      -0.00046763      -3.19570798
H        5.16569022       4.19152075       4.93741979      -0.05383436      -1.07159511       1.12254077       0.00204857       0.00023791      -0.00063429       0.00032450      -0.00042651       0.00050674      -3.63048646
H        6.08173477       5.70054832       5.39223459       0.87913555       0.70500836       0.00554570       0.00009203      -0.00008454       0.00067207       0.00040070      -0.00004663      -0.00012587      -3.25772408
H        3.51160137       5.02033085       4.34981390       1.93952088      -0.80868792       0.33375908       0.00067997      -0.00163111       0.00069634       0.00005355       0.00126925       0.00076438      -3.04431264
H        5.87786522       3.89844720       5.75896822      -0.61343451      -0.07551161      -0.06856286       0.00039847       0.00034338       0.00017161      -0.00008148       0.00028482      -0.00027104      -1.74355184
H        3.88720989       4.12610674       4.86720841       0.62486112      -1.72821163       1.30552428       0.00151439      -0.00024783      -0.00005068       0.00049991      -0.00031942      -0.00053624      -2.57375109
