20
Lattice="10.0 0.0 0.0 0.0 10.0 0.0 0.0 0.0 10.0" Properties=species:S:1:pos:R:3:forces:R:3:stresses:R:6:energies:R:1 energy=-61.762806449695 stress="-0.01857311401327291 0.001042847292470942 -0.0002837657676844901 0.001042847292470942 -0.0008202539059265873 0.007241290638944472 -0.0002837657676844901 0.007241290638944472 -0.0008469994973497705" free_energy=-61.762806449695 pbc="F F F"
H        4.92671780       6.01531314       5.47781790      -1.30687565       1.27351190       3.25745536       0.00080738       0.00022884       0.00140040      -0.00073470      -0.00033197      -0.00040016      -4.24168787
H        4.64711953       4.43321316       4.15557336       7.16244955      -0.42157701      -1.42609153      -0.00155300      -0.00072910      -0.00020066       0.00115459       0.00083036       0.00124939      -2.75847805
H        4.60638121       5.38249322       6.45739283       0.92007353       0.28725960      -0.44879215      -0.00151820      -0.00065009      -0.00013743      -0.00165920       0.00057894       0.00017548      -3.57979419
H        3.64065374       5.70859419       6.82718533      -0.90968174       1.74478276      -0.53665612      -0.00035045       0.00038342       0.00073542      -0.00012548      -0.00005993       0.00083025      -1.66846210
H        5.51279287       6.00818491       6.39949462       1.02223935       0.23359334      -0.48726872       0.00072559       0.00034868       0.00058891       0.00065228      -0.00076680      -0.00051352      -2.73122092
H        5.45247911       5.02842137       5.85762182       1.48301939      -1.63713686       0.51215929      -0.00021796       0.00116159      -0.00065460      -0.00016734       0.00036190      -0.00132147      -4.64584455
H        4.46394864       6.47133561       6.52438052       0.85121591      -1.81010124      -2.53177695       0.00156484       0.00044072       0.00162236       0.00075663      -0.00074477      -0.00004339      -2.51921071
H        5.31057668       5.27831971       4.79383201     -11.24399011      -2.35378508      -3.59350907      -0.00319273      -0.00278902      -0.00196349       0.00053712       0.00179866      -0.00002717      -4.49306069
H        4.25493059       5.39930368       4.41091165      20.01098333      -2.30050151       7.27564515      -0.00792868      -0.00177033      -0.00017845       0.00095412      -0.00054482       0.00333526      -3.44209494
H        3.85155939       5.93150598       5.74495101       0.29286318      -0.66477678      -0.12916810       0.00083934       0.00025091       0.00204515       0.00026777       0.00075234       0.00001802      -3.40631001
H        6.22071474       5.47624135       4.30727635       5.76669135       1.72733976      -2.46412164      -0.00232725       0.00006580       0.00000026       0.00051660       0.00120312      -0.00047493      -1.64983419
H        3.37311910       5.78246224       4.08531629     -14.33359859       5.44339044      -7.11446717      -0.00628271      -0.00001972      -0.00122876       0.00167895      -0.00214394       0.00246691      -1.31318146
H        4.42520093       5.05020770       5.45089336       0.06506328      -1.88290562      -3.71523798      -0.00020295      -0.00298966      -0.00112284      -0.00094702      -0.00070424      -0.00083369      -5.00128645
H        6.18056010       4.66161282       5.06572490       0.18350971       1.87379492       1.80049977       0.00016848       0.00103454       0.00031762       0.00089970      -0.00034684      -0.00026470      -3.12945511
H        3.39143690       5.19522982       5.00173761      -1.03623452      -3.93708905       5.15300783      -0.00016037       0.00075613      -0.00039990       0.00187158       0.00156974      -0.00079803      -3.16238232
H        5.14492622       4.26789567       5.11843015      -4.44915349      -3.51775364       0.40569648       0.00063502      -0.00140011      -0.00126980       0.00067002      -0.00054192      -0.00039709      -3.78727843
H        6.05047591       5.81425070       5.38214886       0.37089689       0.12388730       1.09386022       0.00070376       0.00095838       0.00083881       0.00055294      -0.00099234      -0.00091713      -3.11862715
H        3.58462658       4.59756936       4.02011751      -3.97239282       4.09889828       0.32714839      -0.00134363       0.00141510       0.00048720       0.00091887      -0.00028367       0.00007330      -2.53087602
H        5.88135061       3.92595192       5.85665661      -0.18009810       2.28297884       0.82431043       0.00015706       0.00171181      -0.00016487      -0.00002397      -0.00026944      -0.00055439      -1.67555261
H        3.97219095       4.20187117       4.97004819      -0.69698045      -0.56381037       1.79730652       0.00090335       0.00077184      -0.00156234      -0.00053219       0.00035187      -0.00056010      -2.90816869
