20
Lattice="10.0 0.0 0.0 0.0 10.0 0.0 0.0 0.0 10.0" Properties=species:S:1:pos:R:3:forces:R:3:stresses:R:6:energies:R:1 energy=-69.33613454270002 stress="0.0017208518980765006 -0.002037411917942648 0.00012711694647977398 -0.002037411917942648 0.0027374779275060905 -0.0003134886973035886 0.00012711694647977398 -0.0003134886973035886 0.0008675841365158748" free_energy=-69.33613454270002 pbc="F F F"
H        5.00710633       5.95038755       5.39894909       0.03082273       0.28745781       0.14421984      -0.00107801       0.00026232      -0.00037782      -0.00087670      -0.00081643      -0.00001798      -4.74823743
H        4.58378215       4.74428321       4.10164007      -1.79898736       1.24382364      -0.43854180       0.00132541       0.00075046      -0.00014004       0.00027571      -0.00029413      -0.00073008      -3.19029652
H        4.48201715       5.23485778       6.20511325      -0.46007971       1.76323277      -0.12345552       0.00092983       0.00013020       0.00019301      -0.00145278       0.00032993       0.00025646      -4.18370458
H        3.47570214       5.70219847       6.35894658       0.26101298       0.01381689       0.12283298       0.00111864       0.00019765       0.00017502       0.00041019       0.00027558       0.00014327      -2.70801077
H        5.44540590       5.80269217       6.38821432      -0.17592500      -0.02491832      -0.12118511       0.00148902       0.00018143       0.00037349       0.00032345      -0.00053203       0.00000528      -2.74889740
H        5.41759702       4.92922251       5.71157141      -0.32540871      -0.34317864      -0.32284296      -0.00179484      -0.00077361       0.00008958      -0.00058754       0.00028410      -0.00040628      -4.75859049
H        4.43518506       6.32685222       6.28004108       0.02339143      -0.03768012      -0.04741744       0.00127765       0.00000056       0.00035460       0.00034425      -0.00007816       0.00004136      -2.77513742
H        5.40337488       5.28617565       4.61314790       1.79854621      -0.84419556       1.29524952      -0.00214526       0.00008092       0.00072579      -0.00015114       0.00052337       0.00029311      -4.72111117
H        4.46626911       5.83573346       4.41354085      -0.52913202       0.03139993      -0.02144303       0.00045543       0.00050544       0.00069496       0.00031365       0.00002191       0.00022685      -3.38407757
H        3.91423001       5.92404039       5.38338917       0.75292873      -2.07030613      -0.37091503      -0.00137534       0.00127670      -0.00025808      -0.00058654       0.00080780      -0.00048759      -4.59335352
H        6.43759904       5.56931879       4.36416640       0.30591164       0.10959024       0.17377555       0.00016809       0.00017118       0.00031895      -0.00006371      -0.00022742      -0.00001351      -1.72633744
H        2.86215073       5.61018413       5.39253018      -0.13627859       0.04796920       0.09427103       0.00031037      -0.00017704       0.00083418       0.00037279      -0.00002818      -0.00016625      -2.21542280
H        4.50029468       5.02495036       5.15004475       0.15499523       0.30860905       0.31534373      -0.00527768      -0.00447309      -0.00553671      -0.00052283       0.00021291      -0.00119191      -5.63858882
H        6.22970774       4.67708606       5.00976760      -0.59576185      -0.34063848      -0.13743972       0.00090376       0.00047295      -0.00019929       0.00050903       0.00017123       0.00036367      -3.18246299
H        3.58288171       4.82563302       5.67426558      -0.15882744      -0.25980467      -0.30406820      -0.00070691       0.00121882       0.00054714       0.00025653       0.00021271       0.00047134      -3.69854572
H        5.17330235       4.20174763       4.89462439      -0.30576640       1.72506742      -0.97573789       0.00229597       0.00114878       0.00020613      -0.00002266       0.00004042       0.00085193      -3.72318000
H        6.09010643       5.73344467       5.41600313      -0.22832942      -0.18672316      -0.26789843       0.00050622       0.00030521       0.00113239       0.00072516       0.00009133      -0.00012084      -3.22597327
H        3.56434149       5.19155362       4.60389138       1.50652193      -0.86118894       0.17570721       0.00142698       0.00087364       0.00114001       0.00043132      -0.00069199      -0.00046531      -3.65466432
H        5.84995189       3.90975606       5.72783275      -0.04137473      -0.01630413       0.22988628       0.00029693       0.00040528       0.00003838      -0.00011152       0.00003331      -0.00016963      -1.75500245
H        3.97075577       4.14985999       4.81983105      -0.07825965      -0.54602881       0.57965897       0.00159458       0.00017969       0.00055589       0.00009986      -0.00020915      -0.00092132      -2.70453985
