20
Lattice="10.0 0.0 0.0 0.0 10.0 0.0 0.0 0.0 10.0" Properties=species:S:1:pos:R:3:forces:R:3:stresses:R:6:energies:R:1 energy=-40.16041853020824 stress="0.012891803543151515 -0.002670551821411926 -0.005888868832001514 -0.002670551821411926 0.010637230846312119 -0.00011106748280785693 -0.005888868832001514 -0.00011106748280785693 0.011474141545633464" free_energy=-40.16041853020824 pbc="F F F"
H        5.05064675       5.84355309       5.88008469      -0.64831713       1.98659411       2.28580467       0.00172307      -0.00000854       0.00222449       0.00075725      -0.00028652      -0.00087342      -2.43458992
H        4.31097106       3.93067571       4.09245028      -2.15062804       2.21909605       1.54524746       0.00042053       0.00143799       0.00106112       0.00016285      -0.00083294      -0.00039698      -2.15779390
H        4.49910074       5.34397724       6.69379625      -1.21377167      -0.38619308       0.27796701      -0.00035383      -0.00049879      -0.00076909      -0.00034705       0.00100278      -0.00058099      -3.55875086
H        3.47255271       5.31758418       7.09000805       0.33001898       1.42492105      -0.48988601       0.00018843       0.00097056       0.00049966      -0.00005024      -0.00013932       0.00060011      -1.45457201
H        5.17677254       6.04654129       7.21446193      -0.40130555      -0.70368375      -2.78419653       0.00054805       0.00056751       0.00174013       0.00053696       0.00014028      -0.00033311      -1.54861425
H        5.48381988       4.89904457       6.36858249      -0.63984499       2.18053477       0.39529210       0.00039742       0.00135084       0.00087979       0.00033633      -0.00019020      -0.00054949      -1.87306792
H        4.19309551       6.41556238       6.77856236       1.76560600      -1.72313519       0.41557731       0.00099603       0.00099637       0.00045023      -0.00011341      -0.00090402      -0.00023068      -2.08898672
H        5.26053855       5.18961400       3.89637714      -1.96020056      -0.08908621       0.93942071       0.00212329       0.00076100       0.00057424      -0.00013862      -0.00068761       0.00087651      -1.80258291
H        4.12937838       5.07303715       4.27817003       2.39647645      -2.02513990       2.40938036       0.00143639       0.00149079       0.00235454      -0.00033966      -0.00051224      -0.00009914      -2.79783245
H        3.61699243       5.78936521       6.08567141       3.22583235      -3.13086215      -1.56308086       0.00212226       0.00062857       0.00027720      -0.00001161      -0.00029557      -0.00117701      -2.51588304
H        6.43748063       6.15123222       3.51153055      -0.50711811       0.12384948      -0.78589774       0.00041459       0.00004560      -0.00038346       0.00017772      -0.00007026       0.00027282      -1.12180303
H        2.93177552       6.90172072       3.21573868       0.03753103      -0.06406733       0.03913669       0.00002611       0.00006338       0.00002571      -0.00003843       0.00001991      -0.00003464      -0.00830281
H        4.59350571       4.86571981       5.71551719      -0.51529292      -2.77497972      -1.91358129      -0.00148645       0.00002430      -0.00014787      -0.00001647      -0.00087847      -0.00045927      -3.51148672
H        6.22782777       5.49926385       4.37767458      -1.12780993      -0.99052451       1.46024287       0.00070811       0.00016011      -0.00011267       0.00025279      -0.00015903       0.00033178      -1.67322740
H        3.60336137       4.97183246       5.30999950      -0.35277633       1.63738526      -0.42475867      -0.00060366       0.00027509       0.00067674      -0.00007863      -0.00151889      -0.00019725      -2.83299494
H        4.98023981       4.51161614       4.73845529      -0.39172380       0.79864692       2.32314093       0.00147373       0.00039651       0.00011113      -0.00020232      -0.00074436       0.00024060      -2.91893867
H        6.71393699       6.50409369       4.53909147      -0.31948022      -0.39958999       0.05659041       0.00019966       0.00023619       0.00003088       0.00000460      -0.00002338       0.00018871      -1.03591078
H        3.31496670       4.34062294       4.47224614       1.44008428      -2.54657157      -1.00797039       0.00116962      -0.00037030      -0.00022216      -0.00062566       0.00016368      -0.00059181      -2.10801668
H        6.80434275       3.08752108       6.41491069      -0.06858311       0.08263951      -0.01387559       0.00005218       0.00007323       0.00000870      -0.00001077       0.00001283      -0.00006005      -0.01426883
H        4.09045579       3.94740000       5.23418219       1.10130328       4.38016625      -3.16455345       0.00133628       0.00203682       0.00219483      -0.00036668       0.00001447       0.00040277      -2.70279468
