20
Lattice="10.0 0.0 0.0 0.0 10.0 0.0 0.0 0.0 10.0" Properties=species:S:1:pos:R:3:forces:R:3:stresses:R:6:energies:R:1 energy=-18.63103942926259 stress="0.007150058559640976 -0.0059229946363351434 -0.0024068767458360852 -0.0059229946363351434 -0.00442815662081931 -0.0033966972479499307 -0.0024068767458360852 -0.0033966972479499307 0.0030905421412295584" free_energy=-18.63103942926259 pbc="F F F"
H        5.37340228       6.03812974       7.08374058       3.71560479       1.75926607       1.37287442       0.00188280      -0.00072248      -0.00021027      -0.00059706      -0.00105659      -0.00158224      -1.55299100
H        3.92928323       3.45093632       4.20656528      -1.54887683      -0.65120869       1.75202380       0.00105270       0.00097742       0.00089681      -0.00076038      -0.00014206      -0.00017867      -1.03349871
H        3.97160417       5.91589515       6.86446207       2.75891137      -4.39287997      -0.29322371       0.00175316      -0.00205118       0.00010267       0.00006087       0.00018106       0.00068069      -2.15325141
H        3.20884992       5.18412551       7.23972739       0.02378979       1.38707528      -0.87245261       0.00040049       0.00082478       0.00026332      -0.00035990      -0.00002116      -0.00008903      -1.10303598
H        6.47743913       5.66148338       7.16865023      -1.64375414       0.71323787       0.41845156       0.00113924       0.00011059      -0.00026207      -0.00010922       0.00000887      -0.00031416      -1.03054207
H        5.96837632       5.37404363       6.22575637      -2.25958486       1.07489379       1.07335118       0.00072833       0.00046383       0.00045119       0.00044168      -0.00079572      -0.00044857      -1.41770972
H        3.55909353       6.90467143       6.86942269       0.62691452       6.43755436       0.77880883      -0.00096682      -0.00276921      -0.00005090      -0.00033604      -0.00025645      -0.00007675      -1.01399763
H        5.64722073       5.60140208       3.21268293      -0.30178744      -1.10312742       0.75689995       0.00021519       0.00065715       0.00023639      -0.00035708      -0.00014410       0.00032292      -1.00180473
H        2.78548863       4.87949214       4.06267071       0.22725484       0.47125100      -0.08556814       0.00016555      -0.00013726       0.00002169       0.00002534       0.00001219      -0.00014420      -0.55745262
H        2.85461864       6.11258553       6.65715722      -0.48889709      -3.88051056       0.17893743       0.00011613      -0.00049855       0.00015971      -0.00058642       0.00000253      -0.00125556      -1.46027938
H        7.28112836       6.89012112       2.85916940       2.45544874       2.85077244      -1.48534390      -0.00076132      -0.00102308      -0.00019211       0.00062273       0.00050595      -0.00089286      -0.49863421
H        2.89440265       7.17949998       3.10187187      -0.00172629      -0.03645510       0.01522865       0.00000009       0.00004192       0.00000732      -0.00001751      -0.00000083       0.00000199      -0.00551687
H        4.86177298       5.32887756       6.47386032      -2.70501919      -3.14943083      -2.77500451       0.00058476      -0.00107342      -0.00077013      -0.00101323      -0.00101336      -0.00109956      -1.56883805
H        6.62558911       6.15005723       3.28241485      -2.68981939      -2.92032439       1.89476162      -0.00073739      -0.00092125      -0.00018308       0.00069213       0.00056138      -0.00083885      -1.01139749
H        3.58814732       2.86072325       6.19290509       0.17135919      -0.02239392      -0.86654454       0.00004158       0.00009054       0.00056731       0.00002462      -0.00009156      -0.00001758      -0.53130730
H        5.28387266       4.66294772       3.78907249       0.29228077       1.13353379      -0.66331634       0.00037710       0.00078832       0.00030047      -0.00041423      -0.00021604       0.00043840      -0.56185507
H        7.00318206       7.16319038       4.86174652      -0.06720141      -0.21020669      -0.32795841       0.00003630       0.00011712       0.00037085       0.00010009       0.00000489       0.00005366      -0.07221919
H        2.82049796       3.78322540       4.24103757       1.72795770      -1.42143578       0.33956323       0.00094762      -0.00014255       0.00014277      -0.00007977       0.00010144      -0.00036455      -1.05469681
H        6.90398671       2.83381310       6.40796262      -0.00934465       0.03216695       0.00161455       0.00000393       0.00004251       0.00000131       0.00000250       0.00000003      -0.00001212      -0.00249625
H        3.85380518       2.65475710       5.10663469      -0.28351043       1.92822180      -1.21310306       0.00017060       0.00079664       0.00123729      -0.00073580      -0.00004738      -0.00010594      -0.99951497
