20
Lattice="10.0 0.0 0.0 0.0 10.0 0.0 0.0 0.0 10.0" Properties=species:S:1:pos:R:3:forces:R:3:stresses:R:6:energies:R:1 energy=-69.39845408192272 stress="0.00214803121548835 -0.0017440682996764793 -0.0003480430638988958 -0.0017440682996764793 0.002957780101063314 -0.0004891292929398533 -0.0003480430638988958 -0.0004891292929398533 -0.0007149438638604181" free_energy=-69.39845408192272 pbc="F F F"
H        4.98219454       5.96716595       5.41727476       0.05123758       0.06176512       0.14375210      -0.00066069       0.00041776      -0.00041517      -0.00089865      -0.00078821      -0.00016744      -4.74232136
H        4.62438466       4.78580747       4.08194275      -1.71082024       1.23283703      -0.85038204       0.00148984       0.00066506      -0.00037498       0.00027474      -0.00027331      -0.00055034      -3.18833701
H        4.46611157       5.21376930       6.18827102      -0.94974016       1.43610018       0.54998222       0.00027815      -0.00001892      -0.00018062      -0.00149432       0.00059368       0.00047768      -4.19982104
H        3.44605166       5.62631796       6.35348919       0.03910138       0.04657626      -0.05777164       0.00094901       0.00031641       0.00028027       0.00049130       0.00027788       0.00029116      -2.70141885
H        5.40592958       5.79960327       6.40981950      -0.19367912      -0.11170895      -0.09182649       0.00143257       0.00021928       0.00034189       0.00036993      -0.00047315      -0.00000628      -2.76036198
H        5.40987179       4.93646407       5.71467806       0.60411642       0.10346388       0.01613490      -0.00259424      -0.00067319      -0.00009567      -0.00070094       0.00031163      -0.00027450      -4.72117811
H        4.38160307       6.29840988       6.29760747      -0.08218631       0.02035885      -0.00432937       0.00136279      -0.00006904       0.00037655       0.00030553      -0.00007514       0.00012307      -2.76657884
H        5.42534121       5.34019160       4.62194065       1.04148072      -1.05856691       1.32217997      -0.00118242       0.00053028       0.00101615      -0.00031522       0.00037898       0.00016786      -4.72795477
H        4.45807687       5.86042863       4.42217879      -0.14303525      -0.03220704       0.02628624       0.00082733       0.00045277       0.00070460       0.00038559       0.00000594       0.00009348      -3.37628725
H        3.88647931       5.88987139       5.38872835       1.14637592      -1.46031866      -0.49076890      -0.00115891       0.00101184      -0.00024255      -0.00052998       0.00076615      -0.00047707      -4.62092920
H        6.48211381       5.62226833       4.43499604      -0.10362427      -0.05431543      -0.15334359       0.00043865       0.00015343       0.00007921      -0.00009193      -0.00020405       0.00010416      -1.72134508
H        2.84474028       5.54253938       5.37952171       0.08084277      -0.04567625      -0.17066496       0.00040129      -0.00019637       0.00095370       0.00038025      -0.00014496      -0.00017535      -2.20752335
H        4.51591230       5.03374841       5.13115125      -0.67404011      -0.36679170       0.04227014      -0.00522876      -0.00495303      -0.00614736      -0.00056483      -0.00013845      -0.00094580      -5.61762195
H        6.23495724       4.70756085       5.02957806      -0.01900032       0.09353949      -0.10769775       0.00052114       0.00065194      -0.00016477       0.00045864       0.00029873       0.00013105      -3.19623816
H        3.59525475       4.77673275       5.63283497       0.26247263      -0.05794488       0.06410979      -0.00052903       0.00125675       0.00052785       0.00041612       0.00008116       0.00039662      -3.72080429
H        5.21231276       4.23510254       4.86321088      -0.66822402       1.47341576      -0.96305582       0.00167147       0.00116618       0.00006942       0.00004269      -0.00005275       0.00078688      -3.75869216
H        6.07011833       5.76280587       5.45937832      -0.20991417      -0.23116849       0.01773345       0.00049005       0.00038551       0.00081877       0.00070887       0.00011576      -0.00023287      -3.23427062
H        3.57746547       5.17335164       4.57992961       1.59464108      -0.81624541       0.17995109       0.00168937       0.00097882       0.00109973       0.00042517      -0.00080359      -0.00051184      -3.64522196
H        5.83900117       3.91795739       5.72350506       0.14682442       0.01403842       0.12323002       0.00033093       0.00040573       0.00006013      -0.00016332      -0.00002442      -0.00008909      -1.75729159
H        4.03384122       4.13988106       4.77747453      -0.21282897      -0.24715126       0.40421064       0.00161949       0.00025653       0.00057791       0.00001124      -0.00019993      -0.00088545      -2.73425652
