20
Lattice="10.0 0.0 0.0 0.0 10.0 0.0 0.0 0.0 10.0" Properties=species:S:1:pos:R:3:forces:R:3:stresses:R:6:energies:R:1 energy=-65.90293955632258 stress="-0.002948914246885224 0.0015554712552515455 0.0009938503416259301 0.0015554712552515455 -0.0012865298461228166 0.0027151201613899367 0.0009938503416259301 0.0027151201613899367 0.0034104066354248403" free_energy=-65.90293955632258 pbc="F F F"
H        4.98122185       5.91026804       5.45915682       0.62625758       0.04679167       2.68321140       0.00018755       0.00031688      -0.00132153      -0.00144182       0.00091743       0.00081423      -4.75292917
H        4.54578316       4.73632717       4.14847124       2.95894873      -0.67240042      -2.20738190      -0.00247228      -0.00191418       0.00071545       0.00040451       0.00027162      -0.00147038      -3.17321709
H        4.59757325       5.29229398       6.33642217      -1.32641997      -0.51288531       1.09639695      -0.00002167      -0.00102965       0.00014826      -0.00060622       0.00020405       0.00036422      -3.82968765
H        3.69695914       5.83198305       6.74300217       0.53393490      -0.50172761       0.58058708       0.00068842       0.00028502      -0.00005197       0.00037120      -0.00010573      -0.00005244      -1.75838131
H        5.57845725       5.83549658       6.40589674       0.50442144      -1.10693567      -2.54413372       0.00069670       0.00029251       0.00156788       0.00048599      -0.00018331       0.00018357      -2.74282944
H        5.44758829       4.92783257       5.76212578      -2.13515178      -0.48069042      -0.75413330      -0.00170198      -0.00142554       0.00004500       0.00030363       0.00146494      -0.00010401      -4.70349714
H        4.61127242       6.38487040       6.38455210      -1.06066541       1.83343347       0.14555768       0.00014192      -0.00069133       0.00019677       0.00022547       0.00015786       0.00018440      -2.70422286
H        5.31190976       5.25439277       4.68995847       0.79525157      -1.50136395       0.64975021      -0.00220743      -0.00161526      -0.00137132      -0.00182715      -0.00027858       0.00032685      -4.67644165
H        4.30181302       5.71146989       4.58847917      -2.20130163       0.94220685       2.73810105       0.00107625      -0.00001975       0.00132225      -0.00023103      -0.00033082       0.00074820      -4.07236898
H        3.91056713       5.86824244       5.67095429       5.15026201      -2.02920767       1.76463351      -0.00178169       0.00054519      -0.00216387       0.00106535      -0.00191457      -0.00043327      -4.13336772
H        6.28160209       5.43086840       4.21735267       0.49661618       0.40743256       1.93766748      -0.00007700       0.00031399       0.00152020       0.00020380      -0.00016923      -0.00000283      -1.68138930
H        3.25568538       6.00659726       4.85510891      -3.07345649      -0.92127182      -6.60789352      -0.00062162       0.00098871      -0.00154135       0.00108329      -0.00167830      -0.00031540      -2.11780458
H        4.43571790       4.90970370       5.32556098      -1.02964139       4.99369756      -1.37116901      -0.00131135      -0.00065208       0.00032771      -0.00034606       0.00016837       0.00103458      -5.36572872
H        6.15218447       4.61284964       4.97674774       0.85430758      -0.15977194       0.26722853       0.00016855       0.00059227      -0.00003070       0.00029500       0.00003098       0.00035260      -3.19756326
H        3.35078174       4.99021219       5.29134087       0.47624134      -1.06524398       0.05052570       0.00047250       0.00039272       0.00050237       0.00037334      -0.00056995       0.00022438      -3.06314437
H        5.11384226       4.17612004       4.95389119       1.36392527      -0.82199437      -1.44390865       0.00116018       0.00037392       0.00066119      -0.00032977       0.00118143       0.00129260      -3.65596378
H        6.10039495       5.69331216       5.36483707      -0.86557466       0.46648684      -1.98454359       0.00125133       0.00035949       0.00214319       0.00115761      -0.00027817      -0.00068741      -3.15229062
H        3.49390144       5.02458467       4.19737242      -0.63122900       2.66181969       2.03867114      -0.00008206       0.00116942       0.00081036       0.00073169       0.00086556       0.00016422      -2.74665915
H        5.82004496       3.90248846       5.78852186       0.02045270      -0.65804957      -0.83348459       0.00044418      -0.00007236       0.00049397      -0.00034552       0.00017468       0.00002946      -1.75276825
H        3.90446116       4.13006432       4.74775822      -1.45717896      -0.92032589       3.79431754       0.00104058       0.00050350      -0.00056344       0.00114181       0.00106557      -0.00109810      -2.62268453
