20
Lattice="10.0 0.0 0.0 0.0 10.0 0.0 0.0 0.0 10.0" Properties=species:S:1:pos:R:3:forces:R:3:stresses:R:6:energies:R:1 energy=-69.14506673307164 stress="0.004421183563276698 -0.0026115667336579175 -4.312541160622182e-06 -0.0026115667336579175 0.004295104952016989 -0.0018853005973964534 -4.312541160622182e-06 -0.0018853005973964534 0.0011494002107604062" free_energy=-69.14506673307164 pbc="F F F"
H        5.02680865       5.95063210       5.41006425       0.31993925       0.48486100       0.08100603      -0.00086548       0.00007463      -0.00003822      -0.00075550      -0.00080607       0.00006742      -4.71537815
H        4.59800222       4.73278782       4.12037290      -1.36275436       0.51140783      -0.05864370       0.00144006       0.00100013      -0.00003535      -0.00009499      -0.00009673      -0.00060191      -3.23554873
H        4.44257308       5.22279658       6.20648064      -1.58386309       2.55959477       0.45291679       0.00205079       0.00064317      -0.00006925      -0.00138262       0.00057502       0.00032869      -4.07835200
H        3.43216163       5.75204471       6.28877265       0.66497223      -0.48652089      -0.18034723       0.00153589       0.00017634       0.00038346       0.00037613       0.00047737      -0.00025152      -2.68765920
H        5.42110636       5.78830860       6.42052922      -0.47520308       0.18203816      -0.59844332       0.00187246       0.00002659       0.00062936       0.00015879      -0.00051550       0.00012185      -2.69103953
H        5.39532715       4.93341882       5.73551301       0.49180415      -0.58795590       0.38010471      -0.00215219      -0.00158322      -0.00050340      -0.00084624      -0.00003034      -0.00025520      -4.75273368
H        4.42223529       6.31752348       6.27295340       0.24777680       0.08899279       0.05578605       0.00110391       0.00000064       0.00027294       0.00036871      -0.00007206      -0.00007705      -2.78994719
H        5.42411495       5.26781266       4.63451833       1.56778036      -1.63990667       1.33138924      -0.00223688       0.00001744       0.00061134      -0.00015901       0.00011449       0.00048965      -4.73294699
H        4.51986659       5.83834822       4.40053766      -0.91284384       0.35946702      -0.12018331       0.00013149       0.00042847       0.00070706       0.00032742       0.00006563       0.00038959      -3.37232034
H        3.93553896       5.95923721       5.34297965      -0.37228026      -2.55114483      -0.93067511      -0.00138197       0.00142889      -0.00012459      -0.00049914       0.00088323      -0.00009407      -4.53832487
H        6.47604121       5.47984121       4.38530753       0.20080095       0.15734260       0.34860693       0.00020450       0.00015645       0.00040920      -0.00001203      -0.00025620      -0.00000197      -1.72170355
H        2.86793653       5.69684053       5.26595206       1.03019305      -0.47117805       0.66972969       0.00073729       0.00008937       0.00115825       0.00030934       0.00011575      -0.00037101      -2.19633947
H        4.49742304       5.04095057       5.15511595      -0.13566799      -0.82190855      -0.95504696      -0.00482047      -0.00422620      -0.00602198      -0.00062872      -0.00020320      -0.00119308      -5.64423093
H        6.21477797       4.62852660       5.06329419       0.22126376      -0.13305988      -0.05715209       0.00043513       0.00028179      -0.00020564       0.00038344       0.00016592       0.00007654      -3.20676972
H        3.53036544       4.87391502       5.61232212       0.97191121       0.48618588       0.04192279       0.00017345       0.00134879       0.00045260       0.00018821       0.00029348       0.00057774      -3.70214679
H        5.17820648       4.19318402       4.94121963      -2.16254993       1.80494606      -1.73010486       0.00200749       0.00129620       0.00025850      -0.00035182       0.00002058       0.00013356      -3.77096149
H        6.10605106       5.69872883       5.42455823      -0.30762136       0.24557145       0.51134642       0.00060181       0.00022880       0.00125739       0.00058739      -0.00025470      -0.00024256      -3.19336363
H        3.60242280       5.20710438       4.54314885       1.68231359      -1.06049859       1.09649773       0.00144839       0.00170071       0.00111513       0.00054836      -0.00041619      -0.00063588      -3.65240856
H        5.80691038       3.91257293       5.82074095      -0.10304400      -0.07953289      -0.01763739       0.00035420       0.00033595       0.00017130      -0.00015647       0.00009106      -0.00012273      -1.76101625
H        3.99389179       4.13540343       4.86312970       0.01707255       0.95129868      -0.32107241       0.00178134       0.00087020       0.00072131      -0.00024656      -0.00015585      -0.00094963      -2.70187566
