20
Lattice="10.0 0.0 0.0 0.0 10.0 0.0 0.0 0.0 10.0" Properties=species:S:1:pos:R:3:forces:R:3:stresses:R:6:energies:R:1 energy=-40.869318261315456 stress="0.012206902309464572 0.0002937850268073676 -0.004465935344939726 0.0002937850268073676 0.010014527696209858 -0.001844723707165773 -0.004465935344939726 -0.001844723707165773 0.007948362326085133" free_energy=-40.869318261315456 pbc="F F F"
H        5.05547937       5.85803035       5.89706964      -1.50485340       1.16535063       1.38311282       0.00182733       0.00047358       0.00211833       0.00127442      -0.00010506      -0.00040071      -2.55174747
H        4.31775077       3.96687034       4.09231630      -2.07633125       0.47354215       0.62721104       0.00039317       0.00048630       0.00069026      -0.00002628      -0.00085136      -0.00026273      -2.20758805
H        4.50332058       5.32235593       6.67160860      -5.85417674       0.10142345       3.29573533      -0.00177682      -0.00098955      -0.00149647      -0.00038741       0.00103320      -0.00008637      -3.53751772
H        3.46520235       5.32354312       7.09644884       1.76373301       1.56215866      -1.04467083       0.00092084       0.00098178       0.00059118      -0.00009307      -0.00041245       0.00064852      -1.46812098
H        5.19663378       6.02094710       7.16050171       0.15468311      -0.76396897      -3.06640511       0.00034543       0.00058827       0.00192809       0.00058629       0.00002436      -0.00045951      -1.69167894
H        5.46396198       4.91919602       6.37134721       2.77113629       0.61581474       0.11510347      -0.00116348       0.00094135       0.00069801       0.00041447       0.00012179       0.00016719      -1.92594043
H        4.19452449       6.39672142       6.79175465       2.30391033      -1.31561649       1.10757611       0.00083318       0.00094569       0.00013046      -0.00035497      -0.00123490      -0.00042200      -2.10682546
H        5.26931205       5.20641051       3.93091392      -2.36216579       0.16099159       0.08045474       0.00189863       0.00064010       0.00032315      -0.00001966      -0.00077649       0.00082990      -1.82670498
H        4.13614206       5.05638545       4.30031903       1.77864689      -0.66083284       2.05208316       0.00136713       0.00075530       0.00197068      -0.00053321      -0.00033888       0.00035082      -2.90754872
H        3.64904219       5.77706883       6.08903454       1.95900776      -3.41166094      -2.95863838       0.00170514       0.00029646      -0.00021105      -0.00018194      -0.00080644      -0.00117341      -2.56300549
H        6.41330051       6.14963854       3.51144714      -0.78315861      -1.02854895       1.58798750       0.00050482       0.00053480       0.00070172      -0.00031144      -0.00017548       0.00045550      -1.13374037
H        2.93363772       6.89621903       3.21850227       0.03641966      -0.06321821       0.03956755       0.00002543       0.00006270       0.00002659      -0.00003880       0.00001975      -0.00003358      -0.00822057
H        4.59670634       4.85492805       5.69353089      -3.76358855       1.05905980      -0.82990585       0.00005219       0.00055951      -0.00123964      -0.00060982       0.00030271      -0.00015308      -3.58334927
H        6.23612695       5.47240844       4.41425668      -0.00046883       1.01214254       0.12609149       0.00059624       0.00089132       0.00060467      -0.00031856      -0.00047013       0.00054715      -1.68393760
H        3.57334877       4.99956634       5.28134932       2.38490838       0.33647659       1.18080339       0.00095229       0.00045039       0.00059435      -0.00002187      -0.00047780      -0.00044719      -2.86769923
H        4.99619865       4.51563192       4.75083092       1.33476746      -0.62065807       0.61680415       0.00095739       0.00000115      -0.00144432      -0.00042025      -0.00028004       0.00044240      -2.86966666
H        6.71574270       6.50073987       4.54603569      -0.77454919      -1.20068074      -0.61032724       0.00029806       0.00058267       0.00034492       0.00014594       0.00008290       0.00036566      -1.03208593
H        3.29733996       4.32714462       4.46261346       1.75793743      -1.53069694      -0.96221935       0.00124851      -0.00019200      -0.00011524      -0.00043836       0.00004489      -0.00026372      -2.11324216
H        6.80051565       3.09372511       6.41446411      -0.06646271       0.07904443      -0.01431503       0.00005125       0.00007025       0.00000913      -0.00001104       0.00001323      -0.00005826      -0.01367590
H        4.07747471       3.97244674       5.21316598       0.94060474       4.02987759      -2.72604897       0.00117017       0.00193446       0.00172355      -0.00049917      -0.00017976       0.00024721      -2.77702232
