20
Lattice="10.0 0.0 0.0 0.0 10.0 0.0 0.0 0.0 10.0" Properties=species:S:1:pos:R:3:forces:R:3:stresses:R:6:energies:R:1 energy=-69.35923782721427 stress="0.0025074438683342273 -0.0022921515018287514 0.0006583279721030449 -0.0022921515018287514 0.002430131656313257 -0.0003516191573948061 0.0006583279721030449 -0.0003516191573948061 -3.669672449999892e-05" free_energy=-69.35923782721427 pbc="F F F"
H        5.00093713       5.95398073       5.40421502      -0.24725562      -0.22319536      -0.24990404      -0.00088961       0.00051180      -0.00047487      -0.00082743      -0.00071981       0.00003537      -4.75888721
H        4.58789922       4.75185323       4.09520452      -1.17441528       1.39036769      -0.30914453       0.00153814       0.00075956      -0.00014453       0.00031393      -0.00011899      -0.00062569      -3.18644771
H        4.48414971       5.23162126       6.19438139      -1.38182139       1.55464400       0.60096240       0.00062533       0.00000257      -0.00022755      -0.00151209       0.00045832       0.00026471      -4.19917997
H        3.47375621       5.68142720       6.36377481       0.14456142       0.13104539       0.00613050       0.00110941       0.00017136       0.00024267       0.00037213       0.00029766       0.00017129      -2.70598328
H        5.43377266       5.79882128       6.39322554       0.19399131      -0.03264758      -0.01461395       0.00128960       0.00021041       0.00032113       0.00038685      -0.00056073      -0.00009672      -2.75671773
H        5.41806162       4.92643350       5.70850751      -0.43035217       0.33534450       0.12365281      -0.00211780      -0.00099062      -0.00008600      -0.00066590       0.00040472      -0.00040650      -4.74169580
H        4.42241643       6.32160838       6.28308498      -0.01815153       0.00590885       0.03858414       0.00126410      -0.00001801       0.00033210       0.00031328      -0.00005193       0.00006048      -2.77250089
H        5.41004286       5.30054263       4.61654189       0.99351901      -1.22917156       1.06092493      -0.00164186       0.00021104       0.00084130      -0.00015147       0.00056395       0.00032499      -4.73492603
H        4.46175044       5.83700438       4.41576676      -0.30406822       0.18435907       0.08567274       0.00054548       0.00042132       0.00073959       0.00034521       0.00004731       0.00016488      -3.38495096
H        3.90662515       5.91124340       5.38655647       1.18775013      -1.68159909      -0.32267306      -0.00137412       0.00108877      -0.00028094      -0.00057558       0.00076024      -0.00054018      -4.61589812
H        6.44831966       5.58535996       4.38189166       0.24629148       0.14147001       0.16094666       0.00020163       0.00014921       0.00030451      -0.00005087      -0.00023636       0.00000002      -1.72540808
H        2.85393210       5.60685000       5.39540160       0.12542117      -0.30839120       0.03923084       0.00036242      -0.00008805       0.00099703       0.00038575      -0.00005055      -0.00029322      -2.20416936
H        4.50241311       5.02200479       5.14419125       0.39936986       0.26890765      -0.12169187      -0.00493734      -0.00431788      -0.00588368      -0.00056320       0.00014300      -0.00098751      -5.63796166
H        6.23604329       4.68559779       5.01302024      -0.47326552      -0.28048867      -0.17643757       0.00079540       0.00049335      -0.00019422       0.00046885       0.00023545       0.00027514      -3.18718154
H        3.58094371       4.81842729       5.66364490       0.07556227      -0.27612903      -0.21922854      -0.00046824       0.00121559       0.00050853       0.00033113       0.00022995       0.00042075      -3.71006620
H        5.19049796       4.21214508       4.88446217      -0.70374591       1.36796928      -1.28662525       0.00225405       0.00105582       0.00014939      -0.00014984       0.00008034       0.00073453      -3.71894734
H        6.08487440       5.73705835       5.43031443       0.03211013       0.10334253      -0.36938575       0.00044701       0.00019492       0.00106421       0.00073876       0.00009855      -0.00023738      -3.23097090
H        3.56310973       5.18800916       4.60031079       1.32890881      -0.83247991       0.11730714       0.00154127       0.00084527       0.00107577       0.00047590      -0.00077156      -0.00055404      -3.64805060
H        5.85386757       3.91393080       5.72853857       0.07855618      -0.25076286       0.07219591       0.00030191       0.00026843       0.00010069      -0.00014613       0.00004653      -0.00008526      -1.75295233
H        3.97834863       4.14605851       4.80447645      -0.07296613      -0.36849369       0.76409648       0.00166067       0.00024529       0.00057817       0.00015911      -0.00019777      -0.00091783      -2.68634214
