20
Lattice="10.0 0.0 0.0 0.0 10.0 0.0 0.0 0.0 10.0" Properties=species:S:1:pos:R:3:forces:R:3:stresses:R:6:energies:R:1 energy=-46.53686001646904 stress="-0.0014757903935234244 -0.000582592175210195 -0.004021355985184761 -0.000582592175210195 0.002503091453961625 0.00017171954324472874 -0.004021355985184761 0.00017171954324472874 0.0013915472797822815" free_energy=-46.53686001646904 pbc="F F F"
H        4.92292299       5.97791375       5.78734955      -3.61999079      -0.00384819       1.86818551       0.00257346       0.00016181       0.00210017      -0.00002081      -0.00167890       0.00014868      -3.14193547
H        4.37170770       4.13040932       3.95793341       7.97687981      -2.01379220      -2.18896842      -0.00258642      -0.00018153      -0.00046077       0.00008339       0.00124322       0.00161848      -2.12561301
H        4.48213125       5.20439686       6.58346198      -1.71544331       0.37413366       0.77934285      -0.00118242       0.00021305      -0.00035017      -0.00063419      -0.00022765       0.00000499      -3.53680126
H        3.47107530       5.44657556       7.00004600       0.83621677       0.30663396      -1.08373174       0.00055246       0.00018483       0.00075838       0.00002296      -0.00032686       0.00015530      -1.67112441
H        5.26457833       5.92224298       6.84160957       0.69402788       0.15155700      -0.38265257       0.00035357       0.00015844       0.00039357       0.00044382      -0.00019610      -0.00060261      -2.15414829
H        5.46384663       5.04868780       6.10703426       2.39106824       0.93178672      -0.56230318      -0.00050041       0.00099094       0.00149084       0.00056891      -0.00038622      -0.00007424      -2.46953761
H        4.19032801       6.28482514       6.77142611       4.13270795       0.26435522       1.33437815       0.00068054       0.00023092      -0.00026194      -0.00037770      -0.00156803      -0.00098266      -2.41086064
H        5.37787737       5.29784872       4.35821321      -1.42972575      -2.07031691       3.49024579      -0.00068082       0.00024380       0.00153825       0.00056756       0.00016722      -0.00020661      -2.60432885
H        4.30497908       5.11879423       4.46639709      -0.23892750      -0.45311315      -0.54879207      -0.00086339       0.00071376      -0.00067397      -0.00008743       0.00009166      -0.00066910      -3.65819588
H        3.75735252       5.74915110       5.95059576       2.27120299      -2.05863955      -4.01273661       0.00167022      -0.00032509      -0.00126771      -0.00077074      -0.00179210      -0.00095329      -3.09312221
H        6.17819826       5.92767678       3.99064097       1.67282292       2.02332040      -2.41587780      -0.00079942      -0.00075838      -0.00071915       0.00034999       0.00008816      -0.00059464      -1.53061450
H        2.96369027       6.80637998       3.26770673       0.03877813      -0.08926790       0.06594279       0.00001969       0.00008551       0.00005186      -0.00005735       0.00002611      -0.00003410      -0.01531527
H        4.54842226       4.99057409       5.51493306      -4.64862078      -0.40335676      -1.13591251       0.00090214      -0.00056613      -0.00172578      -0.00008820      -0.00122637      -0.00057130      -4.32171819
H        6.42174665       5.17762769       4.76947032      -1.65402370      -0.42669246       1.42081284       0.00125939       0.00039322       0.00029150       0.00029781      -0.00042694       0.00037199      -1.78725804
H        3.43883062       5.06211502       5.16062625       1.00241062      -0.59976819      -0.29669751       0.00122417      -0.00059347       0.00032744      -0.00021573       0.00041499      -0.00000494      -2.75154796
H        5.08545349       4.31719564       4.82293253       2.38593772       2.59059952      -1.32054091      -0.00002196       0.00107310       0.00093475       0.00009104       0.00100385      -0.00027737      -2.88679667
H        6.46978168       6.28898190       4.99618722      -0.96041558      -1.11500902       0.86404847       0.00075729       0.00070521      -0.00010275      -0.00006449      -0.00023860       0.00044962      -1.22705651
H        3.41572747       4.53189571       4.16278444      -7.05897328       2.95519236       1.18741794      -0.00304644      -0.00057888       0.00001965       0.00000485       0.00061037       0.00125202      -2.03582968
H        6.73299508       3.20248579       6.40082474      -0.07954981       0.11083039      -0.05536464       0.00005705       0.00009802       0.00003640      -0.00004432       0.00003143      -0.00006511      -0.02111915
H        4.03011664       4.14419970       4.99733768      -1.99638254      -0.47460494       2.99320361      -0.00184448       0.00025395      -0.00098902       0.00010234       0.00036939       0.00045229      -3.09393640
