20
Lattice="10.0 0.0 0.0 0.0 10.0 0.0 0.0 0.0 10.0" Properties=species:S:1:pos:R:3:forces:R:3:stresses:R:6:energies:R:1 energy=-19.219337357166037 stress="0.006854018904256872 -0.0003255194178068562 2.540157809844488e-05 -0.0003255194178068562 0.003983891321538423 -0.0012764260039045904 2.540157809844488e-05 -0.0012764260039045904 0.004717195900705518" free_energy=-19.219337357166037 pbc="F F F"
H        5.35702913       6.02890409       7.09596233      -0.75294970      -1.18976597      -1.79224662       0.00178503       0.00039902       0.00068782       0.00047645      -0.00027511      -0.00034377      -1.71416100
H        3.92758500       3.44587585       4.20631914      -1.43373614      -0.54805574       1.68011978       0.00098369       0.00091282       0.00086720      -0.00070624      -0.00013986      -0.00017296      -1.05331060
H        4.01027896       5.89168503       6.85970747       0.30276295      -1.06702332       0.70816066       0.00199303      -0.00010721       0.00011593      -0.00019525       0.00014274       0.00056617      -2.25106778
H        3.19683656       5.17429851       7.24932312       1.18962740       1.58478095      -0.94525953       0.00070592       0.00081344       0.00024817      -0.00034177      -0.00027480       0.00036841      -1.08933414
H        6.42945486       5.70370417       7.18478887      -0.53607459      -0.09303217      -0.34755003       0.00037607       0.00003528       0.00015692       0.00004451       0.00017251       0.00005908      -1.05546159
H        5.91979383       5.38157903       6.23387245       1.83244586       1.52258722       1.35218172      -0.00108749       0.00047169       0.00081401       0.00057741      -0.00022807      -0.00046721      -1.42858829
H        3.60555404       6.92500785       6.89103972       0.53211798       0.96615358       0.28219384      -0.00004584      -0.00028526      -0.00000267      -0.00013589      -0.00008754      -0.00019877      -1.08899495
H        5.61391523       5.58251727       3.21749894       1.29804062       0.43482661       0.36435026       0.00078892       0.00045101       0.00009283      -0.00007983       0.00001462       0.00051437      -0.99656934
H        2.80323890       4.88079236       4.06173630       0.24517987       0.23102807      -0.05016153       0.00016721      -0.00000274       0.00002519       0.00000525       0.00001408      -0.00015471      -0.56032914
H        2.90918311       6.09641658       6.65713735       0.41780701      -1.38469656       0.19138528       0.00037655      -0.00006716       0.00009509      -0.00021909       0.00003824      -0.00044711      -1.50985798
H        7.29356726       6.90739844       2.85685860       0.37370061       0.50385196      -0.14148229      -0.00008856      -0.00016430       0.00009398       0.00013213       0.00006925      -0.00013230      -0.53717734
H        2.89412170       7.17688637       3.10299142      -0.00146422      -0.03699250       0.01544639       0.00000007       0.00004247       0.00000740      -0.00001773      -0.00000070       0.00000168      -0.00561888
H        4.84948082       5.31486219       6.40230913      -2.96550843      -0.38649201       0.44105483      -0.00110160       0.00001010       0.00001533      -0.00003457       0.00024104      -0.00008728      -1.60805705
H        6.62589199       6.14422564       3.30855154      -1.86993092      -1.25259833       0.47097554       0.00059940       0.00015876       0.00011961       0.00024830       0.00018901       0.00029763      -1.04152067
H        3.58972658       2.86779929       6.17740364      -0.08017270       0.17401823       0.14447053       0.00000957       0.00007365       0.00002530      -0.00008181       0.00004436       0.00000771      -0.53606643
H        5.28564204       4.66480568       3.79211369      -0.03898959       0.30036843      -0.14829966       0.00031517       0.00039096       0.00015634      -0.00016892      -0.00011905       0.00027905      -0.57780602
H        6.99853223       7.14947822       4.84330770      -0.06624493      -0.22495978      -0.37743885       0.00003382       0.00012238       0.00038784       0.00011961       0.00001409       0.00005378      -0.07854014
H        2.82434586       3.78211899       4.24866913       1.62435680      -1.18230770       0.31961741       0.00089275      -0.00001322       0.00015562      -0.00010547       0.00010872      -0.00036467      -1.06329858
H        6.90317352       2.83676141       6.40821459      -0.00752912       0.01948406      -0.00133483       0.00000370       0.00002479       0.00000012      -0.00000170       0.00000066      -0.00000958      -0.00204010
H        3.85440999       2.67486076       5.10970577      -0.06343877       1.62882496      -2.16618289       0.00014659       0.00071740       0.00065517      -0.00079179       0.00010121      -0.00009506      -1.02153732
