20
Lattice="10.0 0.0 0.0 0.0 10.0 0.0 0.0 0.0 10.0" Properties=species:S:1:pos:R:3:forces:R:3:stresses:R:6:energies:R:1 energy=-69.60350089830533 stress="7.63430602418857e-06 -5.417094973908795e-06 -4.1149474864003415e-06 -5.417094973908795e-06 -1.7701252271247026e-05 -1.8103180569614672e-07 -4.1149474864003415e-06 -1.8103180569614672e-07 7.72713413322756e-06" free_energy=-69.60350089830533 pbc="F F F"
H        4.85473150       5.98081051       5.50079544       0.00216859      -0.00208361       0.00127645      -0.00076186       0.00060375      -0.00094692      -0.00078820      -0.00077300      -0.00031825      -4.75535008
H        4.62476951       4.92568609       4.03949276      -0.01658863       0.00072043       0.00887505       0.00142738       0.00041317       0.00005103       0.00010619       0.00005072       0.00025980      -3.26021317
H        4.48577338       5.10050339       6.19140357      -0.00101626       0.00272923      -0.00115698       0.00018215      -0.00018871      -0.00032058      -0.00127572       0.00051657       0.00039621      -4.25406874
H        3.40923764       5.28200919       6.39362846       0.00251713       0.00167453      -0.00426126       0.00080657       0.00054136       0.00035186       0.00067938       0.00028691       0.00043904      -2.67732572
H        5.31781300       5.79634601       6.46793421       0.00555699       0.00314678       0.00483351       0.00144583       0.00020973       0.00037171       0.00035771      -0.00067614       0.00003345      -2.74263121
H        5.46582440       5.01314647       5.68854101      -0.01995308      -0.01481973      -0.00828098      -0.00201159      -0.00035312       0.00049219      -0.00027656       0.00002130      -0.00070524      -4.70527811
H        4.20878303       6.13283366       6.39941384      -0.00053794      -0.00324247      -0.00173239       0.00161566      -0.00009668       0.00048233       0.00019071      -0.00006953       0.00047636      -2.72999769
H        5.38216190       5.52735753       4.64325097      -0.00803409       0.02001165      -0.01659481      -0.00094556      -0.00021803       0.00105645       0.00002671       0.00079192      -0.00005925      -4.73536397
H        4.33172483       5.89408505       4.51165217      -0.00029497      -0.00100284      -0.00175200       0.00079073       0.00035298       0.00032344      -0.00006888       0.00020610       0.00024463      -3.39385409
H        3.79669870       5.69283688       5.46233566      -0.00541589       0.00246468       0.00225592      -0.00153652       0.00030901      -0.00094785      -0.00014241       0.00107541      -0.00063861      -4.65060590
H        6.36232774       6.01287242       4.47448394       0.00296790       0.00137144       0.00182738       0.00031487       0.00022213       0.00015523      -0.00011198      -0.00019884       0.00012500      -1.72295512
H        2.83621878       5.16508150       5.40331157      -0.00050778       0.00216705      -0.00020130       0.00040861      -0.00028100       0.00099927       0.00022851      -0.00016588      -0.00002724      -2.21727652
H        4.56099285       5.00699938       5.12158493       0.02378944       0.00423760       0.00138363      -0.00615030      -0.00515290      -0.00616102      -0.00081559      -0.00010953      -0.00058381      -5.59363610
H        6.30132442       5.01348260       4.97406797       0.00989542       0.00392823       0.00517217       0.00047071       0.00048471      -0.00004428       0.00055594       0.00013288       0.00010917      -3.19506327
H        3.71880269       4.53584773       5.60271255      -0.00712074      -0.00083213       0.00467976      -0.00064161       0.00124446       0.00083810       0.00055704      -0.00002930      -0.00006326      -3.72253109
H        5.37074553       4.41492206       4.71187091      -0.00349738      -0.02249702       0.00933788       0.00102260       0.00056707       0.00056234       0.00040610       0.00027953       0.00098256      -3.76839580
H        5.96114557       5.96564454       5.51494830      -0.00045508       0.00132481       0.00315043       0.00052911       0.00004473       0.00100815       0.00061394      -0.00009643      -0.00018101      -3.23720283
H        3.61632088       5.01592596       4.58486170       0.01413774      -0.00741510       0.00259149       0.00081067       0.00078093       0.00094993       0.00012898      -0.00084335       0.00000870      -3.71902824
H        6.03549838       4.07873853       5.53711347      -0.00012105       0.00494677      -0.00302958       0.00045294       0.00039331       0.00004016      -0.00014978       0.00004317      -0.00011562      -1.76976139
H        4.25086695       4.07484808       4.68410711       0.00250967       0.00316970      -0.00837440       0.00177725       0.00010541       0.00074618      -0.00022224      -0.00044663      -0.00038805      -2.75296185
