20
Lattice="10.0 0.0 0.0 0.0 10.0 0.0 0.0 0.0 10.0" Properties=species:S:1:pos:R:3:forces:R:3:stresses:R:6:energies:R:1 energy=-39.21540330120407 stress="0.018770625404814 -0.0009592617051285585 0.0007746614327007762 -0.0009592617051285585 0.019135511990712433 0.00285643703478293 0.0007746614327007762 0.00285643703478293 0.014582402228598175" free_energy=-39.21540330120407 pbc="F F F"
H        5.05149690       5.84924512       5.88448496       1.68731290       1.47159769      -2.08092010       0.00120177       0.00095029       0.00059768       0.00161401       0.00107053      -0.00130155      -2.26051290
H        4.30411959       3.90203830       4.10168021      -0.06733327       2.70615421       2.06640676       0.00010225       0.00168096       0.00129732       0.00034432      -0.00030275       0.00005947      -2.13853043
H        4.51231999       5.38394662       6.66373227      -6.24640453      -3.10004554       5.82679602      -0.00110058      -0.00096974      -0.00243808       0.00087327       0.00120324      -0.00093535      -3.47815030
H        3.45070285       5.34397756       7.07761573       2.25153443       0.83191983      -0.37159981       0.00131422       0.00076210       0.00022736       0.00020380      -0.00043790       0.00053195      -1.40589282
H        5.17750879       6.02364309       7.26185682      -0.20924734      -0.23831715      -2.27348710       0.00049591       0.00054166       0.00150757       0.00034343       0.00006333      -0.00048737      -1.50520277
H        5.46651037       4.85681936       6.43997123      -1.88746608       2.69795112      -1.69264207       0.00080923       0.00175306       0.00141006      -0.00000988       0.00062755      -0.00052650      -1.79200474
H        4.22930483       6.47058378       6.80798517       1.48167029      -2.94423639      -0.29598602       0.00115148       0.00151091       0.00065142       0.00015763      -0.00059115      -0.00023569      -2.02150135
H        5.27789732       5.17876874       3.86941968      -2.38490542      -0.73826613       1.90720007       0.00222326       0.00095692       0.00096069      -0.00045661      -0.00086758       0.00094855      -1.73258142
H        4.12097604       5.06102041       4.27557489       1.84215965      -2.83757003       2.48490085       0.00187996       0.00185769       0.00238972      -0.00037033      -0.00066822       0.00011399      -2.73079901
H        3.65439463       5.82979200       6.10553503       2.40060212      -2.58090495      -3.82346445       0.00164498       0.00108966       0.00031024       0.00111187      -0.00036381      -0.00063531      -2.50220589
H        6.44215346       6.16287271       3.48395611      -0.89457833      -1.25109106       1.31388883       0.00045102       0.00054025       0.00055964      -0.00042617      -0.00024357       0.00043051      -1.11508401
H        2.93058209       6.90525682       3.21388848       0.03630935      -0.06343758       0.03846245       0.00002515       0.00006329       0.00002540      -0.00003792       0.00001911      -0.00003377      -0.00807528
H        4.58508094       4.84110676       5.70867698      -2.03336910       1.50488819       0.95060200       0.00123535       0.00068183       0.00007651      -0.00028439       0.00087136      -0.00024751      -3.52977214
H        6.22561399       5.48745161       4.38855350      -0.16319360       1.51912735      -0.35608551       0.00089209       0.00119886       0.00073314      -0.00032085      -0.00033444       0.00075447      -1.65546623
H        3.54772300       4.98260065       5.28947485       3.63503263      -0.95419944      -0.45754209       0.00174222       0.00209991       0.00259354       0.00121437      -0.00025130      -0.00041353      -2.76318016
H        4.97650568       4.51607127       4.74805928      -0.16197065       0.07639868      -1.39035077       0.00160392       0.00079638      -0.00005532      -0.00056794      -0.00020727       0.00075642      -2.87827508
H        6.72340999       6.52654460       4.51033216      -0.86239365      -1.52257558      -0.24701785       0.00032027       0.00080275       0.00012587       0.00010008       0.00003427       0.00045727      -1.01705086
H        3.30702221       4.29252700       4.41246603       2.25875607       0.48582317       2.71015510       0.00111045       0.00046627       0.00117577       0.00002401       0.00096252       0.00011212      -2.05864313
H        6.80725539       3.08274601       6.41502990      -0.07270152       0.08558427      -0.01109141       0.00005555       0.00007455       0.00000854      -0.00000830       0.00001102      -0.00006275      -0.01503783
H        4.10118354       3.93296534       5.24921760      -0.60981394       4.85119933      -4.29822489       0.00161212       0.00227792       0.00242534      -0.00064796       0.00017974      -0.00024471      -2.60743697
