20
Lattice="10.0 0.0 0.0 0.0 10.0 0.0 0.0 0.0 10.0" Properties=species:S:1:pos:R:3:forces:R:3:stresses:R:6:energies:R:1 energy=-23.033831039972316 stress="0.007404509935239861 -0.0005565906351728227 -0.0020615523102140375 -0.0005565906351728227 0.006895781882919224 -0.0016436214383462214 -0.0020615523102140375 -0.0016436214383462214 -0.00036616067295783104" free_energy=-23.033831039972316 pbc="F F F"
H        5.22419868       6.05481451       6.73572662      -1.98031807      -0.19115061      -0.32997467       0.00074995       0.00040564       0.00012540       0.00020242      -0.00013311      -0.00000961      -2.12076334
H        4.05063573       3.66349466       4.18519623      -3.22895706       1.65609565       1.26409891       0.00230016       0.00188014       0.00070264      -0.00067948      -0.00042292      -0.00026179      -1.36553438
H        4.14101538       5.85384535       6.99075790       4.71857128      -0.93570829      -0.81870377      -0.00101418      -0.00090995       0.00004728       0.00044388      -0.00020525      -0.00014526      -2.51527570
H        3.33195037       5.22392457       7.37903760      -0.72232268      -1.48457098       0.78642742      -0.00025307      -0.00034574      -0.00008700       0.00037582      -0.00001939      -0.00023424      -1.10956819
H        6.24718772       5.78696301       7.08841320       0.14354209      -0.08523120       0.12442743       0.00009298      -0.00001664      -0.00000898       0.00001789      -0.00000413       0.00007252      -1.05122895
H        5.74615013       5.15295745       6.31262081      -0.83715879       0.17549523      -0.05006723       0.00051782       0.00012289       0.00009268       0.00002279      -0.00009929      -0.00018957      -1.55051670
H        3.87245313       6.92435258       6.96138338      -0.30514737      -0.32298408      -0.31364182       0.00070255       0.00019768       0.00007877       0.00013710      -0.00006066       0.00014755      -1.16922786
H        5.54231115       5.56125313       3.27692519      -1.68972953      -1.49092087      -0.11642855      -0.00042483       0.00021479       0.00005876      -0.00039313      -0.00038966      -0.00011643      -1.03095069
H        3.37852253       4.76561412       4.05459137       0.98379412      -3.05047190       0.61160224       0.00092368       0.00171532       0.00015845      -0.00035982      -0.00002073      -0.00037476      -0.90298193
H        3.10401322       6.10714108       6.74879247      -1.13205710       1.70223796      -0.90399497      -0.00045273      -0.00004506      -0.00016559       0.00039702      -0.00031414       0.00046468      -1.53821911
H        7.13004564       6.83766497       3.19909545       0.16351583      -0.83069418      -4.39031014       0.00021840       0.00028841      -0.00242262      -0.00022102       0.00030342       0.00030393      -0.96229735
H        2.89324937       7.11918580       3.12702588       0.00596769      -0.02894326       0.01140682       0.00000145       0.00003406       0.00000529      -0.00001342       0.00000277      -0.00000702      -0.00408343
H        4.63527145       5.28313152       6.14473656       0.08328187       0.96529063       1.30072210       0.00101628       0.00056485       0.00069855       0.00044695      -0.00012803      -0.00003266      -1.67881445
H        6.42353360       6.07875020       3.67363444       1.57780764       0.78887271       0.03078775      -0.00046240      -0.00006049      -0.00013334      -0.00048714      -0.00055199      -0.00019410      -1.51680067
H        3.53051458       3.11526809       6.09692608       0.26793500      -0.05917609      -1.52151836       0.00007992       0.00017844       0.00098467       0.00006548      -0.00013026      -0.00002345      -0.55544856
H        5.19465006       4.67733706       3.91033957      -0.60794080       0.32377006      -0.24307026       0.00093522       0.00082859       0.00030202      -0.00032590      -0.00025258       0.00063664      -0.73765499
H        6.94599761       6.87033338       4.25363050      -0.59883619       0.54318739       5.06961114      -0.00009747      -0.00012941      -0.00257796      -0.00019060       0.00037683      -0.00005011      -0.95845371
H        2.83385106       3.79858561       4.36045689       3.89474223      -0.07092435       0.05802908       0.00205725       0.00094285       0.00041155      -0.00045435       0.00002729      -0.00026228      -1.09785193
H        6.88779340       2.88212645       6.40985592      -0.01552548       0.03088158      -0.00132232       0.00000886       0.00003506       0.00000006      -0.00000150       0.00000075      -0.00001763      -0.00461922
H        3.77841682       2.87323419       4.99836484      -0.72116466       2.36494459      -0.56808082       0.00050467       0.00099434       0.00136318      -0.00062661      -0.00004048      -0.00026303      -1.16353986
