20
Lattice="10.0 0.0 0.0 0.0 10.0 0.0 0.0 0.0 10.0" Properties=species:S:1:pos:R:3:forces:R:3:stresses:R:6:energies:R:1 energy=-69.6029124515648 stress="0.00017728014759396524 0.00015929794081716674 0.00010180804516748669 0.00015929794081716674 8.897875271859108e-05 1.855381385302292e-05 0.00010180804516748669 1.855381385302292e-05 -8.477058695014522e-05" free_energy=-69.6029124515648 pbc="F F F"
H        4.85356387       5.98049465       5.50022378       0.02223436       0.00453596      -0.00578925      -0.00076732       0.00059578      -0.00094966      -0.00079277      -0.00077138      -0.00030703      -4.75601338
H        4.62856901       4.92354905       4.03941512       0.01426690      -0.00141998      -0.01731136       0.00143000       0.00041309       0.00003618       0.00010721       0.00006379       0.00027747      -3.25898126
H        4.48331799       5.09887218       6.19016815      -0.03171490       0.07913331       0.02939583       0.00019044      -0.00014956      -0.00032726      -0.00128023       0.00053802       0.00040021      -4.25117732
H        3.40629948       5.28173618       6.38829694      -0.02493150       0.00350536       0.00663610       0.00079548       0.00052223       0.00034981       0.00067021       0.00028801       0.00043157      -2.67975763
H        5.31271311       5.79755953       6.46965788       0.01001117      -0.01443870       0.00499680       0.00144080       0.00021133       0.00036399       0.00035369      -0.00066606       0.00004948      -2.74403222
H        5.46496250       5.01531900       5.69046936      -0.05606656      -0.06188881      -0.03637802      -0.00201510      -0.00039932       0.00048347      -0.00027116       0.00003436      -0.00069318      -4.70805564
H        4.20478176       6.13138444       6.39663965      -0.00868462       0.01751359       0.01987389       0.00158206      -0.00009799       0.00046877       0.00019267      -0.00006763       0.00046903      -2.73380106
H        5.38499689       5.52672434       4.64520207      -0.05761862       0.04058527       0.00073522      -0.00087996      -0.00019172       0.00108750       0.00004545       0.00077981      -0.00000663      -4.73691066
H        4.33450329       5.89233517       4.50921245       0.00021222       0.03172627      -0.02504439       0.00079435       0.00033756       0.00030806      -0.00006588       0.00021228       0.00025125      -3.39346520
H        3.79575396       5.69298548       5.45786843       0.00879401      -0.08369444       0.01850428      -0.00153962       0.00033506      -0.00093444      -0.00015272       0.00107753      -0.00065808      -4.64818649
H        6.36534635       6.01580487       4.48172989      -0.04295336      -0.05148200      -0.01665885       0.00034276       0.00024102       0.00013513      -0.00012068      -0.00019571       0.00013955      -1.72294194
H        2.83546145       5.16535329       5.39668818       0.01677303      -0.01797838      -0.00380552       0.00041684      -0.00027858       0.00100056       0.00022835      -0.00016810      -0.00003706      -2.21706820
H        4.56130775       5.00621943       5.12087009       0.04498159       0.07052750       0.03764546      -0.00609847      -0.00515199      -0.00618174      -0.00082760      -0.00010863      -0.00055831      -5.59452910
H        6.30354465       5.01510217       4.97972694      -0.03747249       0.02261585      -0.00817036       0.00048943       0.00052331      -0.00003682       0.00057404       0.00013709       0.00013015      -3.19243215
H        3.71710109       4.53529085       5.59911222       0.00721947       0.01866716      -0.00028917      -0.00062767       0.00125292       0.00081741       0.00054678      -0.00002973      -0.00005799      -3.72268369
H        5.37239460       4.41433080       4.71483181       0.12837785      -0.00248168       0.02950806       0.00103099       0.00057598       0.00056318       0.00041604       0.00029398       0.00101776      -3.76659758
H        5.95999679       5.96828566       5.51975415      -0.02547175      -0.04728405      -0.02422097       0.00053574       0.00006136       0.00100917       0.00063592      -0.00008061      -0.00018942      -3.23449277
H        3.61836227       5.01426285       4.58087656       0.03281437      -0.00120936       0.01415586       0.00082763       0.00079738       0.00094224       0.00013615      -0.00084127       0.00000354      -3.71869485
H        6.03549478       4.08134465       5.54264944       0.01026982      -0.03620111       0.00478758       0.00044903       0.00037389       0.00003786      -0.00014775       0.00004633      -0.00011066      -1.77033321
H        4.25329006       4.07302303       4.68411745      -0.01104098       0.02926822      -0.02857119       0.00177986       0.00011723       0.00074182      -0.00022917      -0.00044027      -0.00039236      -2.75275809
