36
Lattice="5.147737367038067 -4.4580713318653835 0.0 5.147737367038067 4.4580713318653835 0.0 0.0 0.0 19.2" Properties=species:S:1:pos:R:3:forces:R:3 energy=-124.52074357194645 pbc="T T F"
Cu       7.72160605       0.74301189       0.00000000       0.00541769      -0.03972599      -0.05165814
Cu       5.14773737      -3.71505944       0.00000000       0.00815538       0.01102407      -0.08589823
Cu       2.57386868       0.74301189       0.00000000      -0.02009503       0.00655665      -0.08380560
Cu       5.14773737       0.74301189       0.00000000      -0.01278456      -0.04276632      -0.04967188
Cu       3.86080303      -1.48602378       0.00000000      -0.00274142       0.02955145       0.04662573
Cu       6.43467171      -1.48602378       0.00000000      -0.00567699       0.00410529       0.10868849
Cu       3.86080303       2.97204755       0.00000000      -0.00320521       0.02705212       0.03968498
Cu       6.43467171       2.97204755       0.00000000       0.00058721       0.00520144       0.03016546
Cu       6.42955848       1.48524696       2.06211095       0.00132707      -0.00191246       0.00704025
Cu       3.86660485      -2.97672890       2.06241020      -0.00614918       0.01005126       0.01681939
Cu       6.42743130      -2.97631929       2.10019877       0.00562524       0.00080962       0.00033212
Cu       3.84325046       1.47939118       2.06086882       0.00745115       0.01589459       0.02434582
Cu       2.56894803      -0.71382576       2.08911717       0.00070210      -0.01020709      -0.00792544
Cu       5.14443014      -0.73533558       2.09935929      -0.00999850       0.01222332       0.00845173
Cu       7.71465053      -0.73591053       2.09607027       0.01266764       0.01502471       0.00949703
Cu       5.14563018       3.74345821       2.08518205      -0.01035526      -0.00824542      -0.00435823
Cu       3.87438778       0.03010816       4.25527341      -0.00087018       0.00559052      -0.01474585
Cu       6.42489996       0.05389751       4.23426098       0.00432358      -0.02834681       0.01668312
Cu       8.97714503       0.02985124       4.24438508      -0.00155484      -0.00556120       0.00793122
Cu       1.27682862       0.00608674       4.21561067       0.00520707      -0.00618371       0.00107807
Cu       2.59413350      -2.22744866       4.07449370       0.02738866       0.00412495      -0.02223477
Cu       5.14480230      -2.21676240       4.16876008       0.00467533      -0.00453437       0.01453453
Cu       2.55259882       2.24261715       4.16326153       0.00437272      -0.00815723       0.02611287
Cu       5.10564737       2.23141024       4.07039189      -0.01980520       0.00225265      -0.01380280
Cu       2.63155078       0.63707466       6.71899285      -0.02039904      -0.00356720      -0.02069183
Cu       6.42078625      -1.50085222       6.20458515       0.00921828       0.00094171       0.00460052
O        6.42527974      -0.85606388       8.02099267       0.01095601       0.01397926       0.03917977
O        3.87005421      -2.80456039       7.64696499      -0.02587756       0.03080428       0.00722265
Cu       3.85715973       2.90384021       6.18052003      -0.01386790       0.00741415      -0.00618986
Cu       6.41932104       1.85578266       6.13260368       0.00573015      -0.01280838       0.01405330
Cu       7.74029622       0.36611629       7.68795041       0.01471039       0.00506077       0.02666192
Cu       5.08242887      -3.82380977       6.69869740       0.00730316      -0.01145492      -0.00373189
Cu       5.11352472       0.36966118       7.69240228      -0.00466293       0.00127695       0.03202878
O        3.84978009       1.66982553       7.64990026      -0.02002373      -0.01528608      -0.00088042
O        1.28711283      -0.55857290       6.20337762       0.01316085       0.02482782      -0.00617923
Cu       3.83570763      -1.55525311       6.18958014       0.03349121      -0.01313186      -0.00034034
