10
Lattice="10.0 0.0 0.0 0.0 10.0 0.0 0.0 0.0 10.0" Properties=species:S:1:pos:R:3 pbc="F F F"
C        5.00000000       4.74482600       7.07195500
C        5.00000000       4.74482600       5.60997000
C        5.00000000       4.74482600       4.39003000
C        5.00000000       4.74482600       2.92804500
H        5.00000000       5.76552200       7.46456200
H        4.11605100       4.23447800       7.46456200
H        5.88394900       4.23447800       7.46456200
H        5.00000000       5.76552200       2.53543800
H        5.88394900       4.23447800       2.53543800
H        4.11605100       4.23447800       2.53543800
