36
Lattice="8.591347391416553 0.0 0.0 0.0 8.591347391416553 0.0 0.0 0.0 26.075" Properties=species:S:1:pos:R:3:tags:I:1 pbc="T T F"
Al       1.43189123       1.43189123      10.00000000        4
Al       4.29567370       1.43189123      10.00000000        4
Al       7.15945616       1.43189123      10.00000000        4
Al       1.43189123       4.29567370      10.00000000        4
Al       4.29567370       4.29567370      10.00000000        4
Al       7.15945616       4.29567370      10.00000000        4
Al       1.43189123       7.15945616      10.00000000        4
Al       4.29567370       7.15945616      10.00000000        4
Al       7.15945616       7.15945616      10.00000000        4
Al       0.00000000       0.00000000      12.02500000        3
Al       2.86378246       0.00000000      12.02500000        3
Al       5.72756493       0.00000000      12.02500000        3
Al       0.00000000       2.86378246      12.02500000        3
Al       2.86378246       2.86378246      12.02500000        3
Al       5.72756493       2.86378246      12.02500000        3
Al       0.00000000       5.72756493      12.02500000        3
Al       2.86378246       5.72756493      12.02500000        3
Al       5.72756493       5.72756493      12.02500000        3
Al       1.43189123       1.43189123      14.05000000        2
Al       4.29567370       1.43189123      14.05000000        2
Al       7.15945616       1.43189123      14.05000000        2
Al       1.43189123       4.29567370      14.05000000        2
Al       4.29567370       4.29567370      14.05000000        2
Al       7.15945616       4.29567370      14.05000000        2
Al       1.43189123       7.15945616      14.05000000        2
Al       4.29567370       7.15945616      14.05000000        2
Al       7.15945616       7.15945616      14.05000000        2
Al       0.00000000       0.00000000      16.07500000        1
Al       2.86378246       0.00000000      16.07500000        1
Al       5.72756493       0.00000000      16.07500000        1
Al       0.00000000       2.86378246      16.07500000        1
Al       2.86378246       2.86378246      16.07500000        1
Al       5.72756493       2.86378246      16.07500000        1
Al       0.00000000       5.72756493      16.07500000        1
Al       2.86378246       5.72756493      16.07500000        1
Al       5.72756493       5.72756493      16.07500000        1
