10
Lattice="10.0 0.0 0.0 0.0 10.0 0.0 0.0 0.0 10.0" Properties=species:S:1:pos:R:3 pbc="F F F"
C        5.00000000       6.13134300       5.19242850
C        5.00000000       3.86865700       5.19242850
C        5.74795200       5.00000000       4.57019250
C        4.25204800       5.00000000       4.57019250
H        5.00000000       6.23703300       6.27962150
H        5.00000000       7.07737500       4.65433650
H        5.00000000       3.76296700       6.27962150
H        5.00000000       2.92262500       4.65433650
H        6.41441000       5.00000000       3.72037850
H        3.58559000       5.00000000       3.72037850
