10
Lattice="10.0 0.0 0.0 0.0 10.0 0.0 0.0 0.0 10.0" Properties=species:S:1:pos:R:3 pbc="F F F"
C        5.60571100       6.74655000       5.00000000
C        5.60571100       5.40408300       5.00000000
C        4.39428900       4.59591700       5.00000000
C        4.39428900       3.25345000       5.00000000
H        6.52761700       7.31744300       5.00000000
H        4.67886800       7.31311600       5.00000000
H        6.55350300       4.86636000       5.00000000
H        3.44649700       5.13364000       5.00000000
H        5.32113200       2.68688400       5.00000000
H        3.47238300       2.68255700       5.00000000
