7
Lattice="10.0 0.0 0.0 0.0 10.0 0.0 0.0 0.0 10.0" Properties=species:S:1:pos:R:3:initial_magmoms:R:1 pbc="F F F"
C        4.74110900       4.18437150       5.00000000       0.00000000
C        4.74110900       5.67346150       5.00000000       1.00000000
H        5.76156900       3.77494650       5.00000000       0.00000000
H        4.23843100       3.78537550       5.88483900       0.00000000
H        4.23843100       3.78537550       4.11516100       0.00000000
H        4.85560500       6.22505350       5.92370500       0.00000000
H        4.85560500       6.22505350       4.07629500       0.00000000
