12
Properties=species:S:1:pos:R:3 pbc="F F F"
O        0.02719100       1.36369100      -0.16751600
C       -0.00092600       0.03645900       0.37012800
H        0.85946500       1.77564700       0.12130700
H        0.00737100       0.08214500       1.47050600
C       -1.31327500      -0.56351400      -0.08897900
C        1.20072100      -0.76448000      -0.10492000
H       -1.33400500      -0.60725300      -1.18100900
H        1.20284300      -0.80781700      -1.19718900
H       -2.14781200       0.05499300       0.24767600
H        2.13646200      -0.29932400       0.22316400
H       -1.43870900      -1.57427500       0.30834000
H        1.17773600      -1.78443600       0.28996700
