8
Lattice="10.0 0.0 0.0 0.0 10.0 0.0 0.0 0.0 10.0" Properties=species:S:1:pos:R:3 pbc="F F F"
C        5.00000000       5.00000000       5.76220900
C        5.00000000       5.00000000       4.23779100
H        5.00000000       6.01895700       6.15722900
H        4.11755700       4.49052100       6.15722900
H        5.88244300       4.49052100       6.15722900
H        5.00000000       3.98104300       3.84277100
H        4.11755700       5.50947900       3.84277100
H        5.88244300       5.50947900       3.84277100
