10
Properties=species:S:1:pos:R:3 pbc="F F F"
C       -0.02753000      -0.22470200       1.20488000
N       -0.02753000       0.59247000       0.00000000
C       -0.02753000      -0.22470200      -1.20488000
H        0.79150100      -0.96274200       1.24850600
H        0.03959800       0.42118200       2.08340500
H       -0.97222000      -0.77298700       1.26175000
H        0.80530300       1.17822000       0.00000000
H        0.79150100      -0.96274200      -1.24850600
H        0.03959800       0.42118200      -2.08340500
H       -0.97222000      -0.77298700      -1.26175000
