10
Lattice="10.0 0.0 0.0 0.0 10.0 0.0 0.0 0.0 10.0" Properties=species:S:1:pos:R:3 pbc="F F F"
S        5.00000650       5.37813050       4.14726550
O        5.00002450       6.64703450       4.96572750
C        6.33953250       4.33727050       4.76662550
C        3.66045650       4.33730050       4.76662650
H        6.25583950       4.24990750       5.85273350
H        2.72060050       4.83236850       4.51723450
H        6.30441150       3.35296550       4.29331950
H        7.27939950       4.83231850       4.51723450
H        3.69555750       3.35299450       4.29332150
H        3.74414750       4.24993750       5.85273450
