9
Lattice="10.0 0.0 0.0 0.0 10.0 0.0 0.0 0.0 10.0" Properties=species:S:1:pos:R:3 pbc="F F F"
C        5.00000000       5.50305750       5.00000000
C        5.75084200       4.20256050       5.00000000
C        4.24915800       4.20256050       5.00000000
H        5.00000000       6.09182150       5.91052600
H        5.00000000       6.09182150       4.08947400
H        6.26072700       3.90817850       4.08947400
H        6.26072700       3.90817850       5.91052600
H        3.73927300       3.90817850       5.91052600
H        3.73927300       3.90817850       4.08947400
