9
Lattice="10.0 0.0 0.0 0.0 10.0 0.0 0.0 0.0 10.0" Properties=species:S:1:pos:R:3 pbc="F F F"
C        6.13866000       5.12727850       5.00000000
C        4.84737000       5.47275550       5.00000000
H        6.44853000       4.08617650       5.00000000
H        6.92817000       5.87093350       5.00000000
H        4.58414900       6.52969450       5.00000000
C        3.70761300       4.50125550       5.00000000
H        4.07051100       3.47030550       5.00000000
H        3.07183000       4.64073550       5.88042000
H        3.07183000       4.64073550       4.11958000
