10
Properties=species:S:1:pos:R:3:initial_magmoms:R:1 pbc="F F F"
C        0.01422300       0.54385000       0.00000000       1.00000000
C        0.01422300      -0.19974200       1.29157200       0.00000000
C        0.01422300      -0.19974200      -1.29157200       0.00000000
H       -0.32289000       1.57532900       0.00000000       0.00000000
H        0.22141700       0.45917400       2.13847700       0.00000000
H        0.22141700       0.45917400      -2.13847700       0.00000000
H       -0.95515700      -0.68462900       1.48463300       0.00000000
H        0.76718100      -0.99530800       1.28623900       0.00000000
H        0.76718100      -0.99530800      -1.28623900       0.00000000
H       -0.95515700      -0.68462900      -1.48463300       0.00000000
