11
Lattice="10.0 0.0 0.0 0.0 10.0 0.0 0.0 0.0 10.0" Properties=species:S:1:pos:R:3 pbc="F F F"
C        5.25629600       4.38579650       5.00000000
C        6.72925400       4.78297250       5.00000000
C        4.36366700       5.61106150       5.00000000
H        5.02739800       3.77602350       5.87920100
H        5.02739800       3.77602350       4.12079900
H        7.36914300       3.89721650       5.00000000
Cl       2.63085700       5.16788350       5.00000000
H        6.97854900       5.37584450       4.11527000
H        6.97854900       5.37584450       5.88473000
H        4.53654800       6.22397650       5.88646000
H        4.53654800       6.22397650       4.11354000
