11
Lattice="10.0 0.0 0.0 0.0 10.0 0.0 0.0 0.0 10.0" Properties=species:S:1:pos:R:3 pbc="F F F"
C        5.00000000       5.00000000       5.41756200
C        5.00000000       6.26685700       4.56966000
C        5.00000000       3.73314300       4.56966000
H        4.12310200       5.00000000       6.07455900
H        5.87689800       5.00000000       6.07455900
H        5.00000000       7.16615000       5.19191200
H        5.00000000       2.83385000       5.19191200
H        5.88361900       6.30423400       3.92544100
H        4.11638100       6.30423400       3.92544100
H        4.11638100       3.69576600       3.92544100
H        5.88361900       3.69576600       3.92544100
