13
Properties=species:S:1:pos:R:3:initial_magmoms:R:1 pbc="F F F"
C        0.00000000       0.00000000       0.19192900       1.00000000
C        0.00000000       1.47818700      -0.02086600       0.00000000
C        1.28014700      -0.73909300      -0.02086600       0.00000000
C       -1.28014700      -0.73909300      -0.02086600       0.00000000
H        0.00000000       1.73149600      -1.09379200       0.00000000
H       -0.88704300       1.94576900       0.41756500       0.00000000
H        0.88704300       1.94576900       0.41756500       0.00000000
H        1.49952000      -0.86574800      -1.09379200       0.00000000
H        2.12860700      -0.20468300       0.41756500       0.00000000
H        1.24156400      -1.74108600       0.41756500       0.00000000
H       -1.49952000      -0.86574800      -1.09379200       0.00000000
H       -1.24156400      -1.74108600       0.41756500       0.00000000
H       -2.12860700      -0.20468300       0.41756500       0.00000000
