13
Lattice="10.0 0.0 0.0 0.0 10.0 0.0 0.0 0.0 10.0" Properties=species:S:1:pos:R:3 pbc="F F F"
N        5.00000000       4.91095400       5.78187250
C        5.00000000       6.28897500       5.32085150
C        6.19340100       4.22194300       5.32085150
C        3.80659900       4.22194300       5.32085150
H        5.00000000       6.37209600       4.21812750
H        5.88615600       6.80200600       5.70368150
H        4.11384400       6.80200600       5.70368150
H        6.26538600       4.18038300       4.21812750
H        6.19462100       3.19799400       5.70368150
H        7.08077700       4.73286200       5.70368150
H        3.73461400       4.18038300       4.21812750
H        2.91922300       4.73286200       5.70368150
H        3.80537900       3.19799400       5.70368150
