9
Properties=species:S:1:pos:R:3 pbc="F F F"
O        0.00000000       0.00000000       1.16333900
C        0.00000000       1.09470000       0.34803900
C        0.00000000      -1.09470000       0.34803900
C        0.00000000       0.71320000      -0.96216100
C        0.00000000      -0.71320000      -0.96216100
H        0.00000000       2.04935900       0.85111300
H        0.00000000      -2.04935900       0.85111300
H        0.00000000       1.37082800      -1.81973800
H        0.00000000      -1.37082800      -1.81973800
