9
Properties=species:S:1:pos:R:3 pbc="F F F"
S        0.00000000       0.00000000       1.18975300
C        0.00000000       1.23387600      -0.00147400
C        0.00000000      -1.23387600      -0.00147400
C        0.00000000       0.70917300      -1.27232200
C        0.00000000      -0.70917300      -1.27232200
H        0.00000000       2.27534300       0.29198400
H        0.00000000      -2.27534300       0.29198400
H        0.00000000       1.32193400      -2.16723100
H        0.00000000      -1.32193400      -2.16723100
