11
Lattice="10.0 0.0 0.0 0.0 10.0 0.0 0.0 0.0 10.0" Properties=species:S:1:pos:R:3 pbc="F F F"
N        5.00000000       5.00000000       6.94886200
C        5.00000000       5.00000000       4.13801200
C        5.00000000       6.14427700       6.24449600
C        5.00000000       3.85572300       6.24449600
C        5.00000000       3.80359600       4.85127300
C        5.00000000       6.19640400       4.85127300
H        5.00000000       5.00000000       3.05113800
H        5.00000000       7.06072300       6.83166700
H        5.00000000       2.93927700       6.83166700
H        5.00000000       2.84470700       4.34108700
H        5.00000000       7.15529300       4.34108700
