13
Lattice="10.0 0.0 0.0 0.0 10.0 0.0 0.0 0.0 10.0" Properties=species:S:1:pos:R:3 pbc="F F F"
C        5.00000000       5.00000000       5.00000000
C        5.00000000       5.76201400       6.26575200
C        5.00000000       4.23798600       6.26575200
C        5.76201400       5.00000000       3.73424800
C        4.23798600       5.00000000       3.73424800
H        4.08597700       6.26507500       6.56809000
H        5.91402300       6.26507500       6.56809000
H        4.08597700       3.73492500       6.56809000
H        5.91402300       3.73492500       6.56809000
H        6.26507500       4.08597700       3.43191000
H        6.26507500       5.91402300       3.43191000
H        3.73492500       4.08597700       3.43191000
H        3.73492500       5.91402300       3.43191000
