12
Lattice="10.0 0.0 0.0 0.0 10.0 0.0 0.0 0.0 10.0" Properties=species:S:1:pos:R:3 pbc="F F F"
C        5.00000000       6.39524800       5.00000000
C        6.20832000       5.69762400       5.00000000
C        6.20832000       4.30237600       5.00000000
C        5.00000000       3.60475200       5.00000000
C        3.79168000       4.30237600       5.00000000
C        3.79168000       5.69762400       5.00000000
H        5.00000000       7.48236000       5.00000000
H        7.14978700       6.24118000       5.00000000
H        7.14978700       3.75882000       5.00000000
H        5.00000000       2.51764000       5.00000000
H        2.85021300       3.75882000       5.00000000
H        2.85021300       6.24118000       5.00000000
