8
Lattice="10.0 0.0 0.0 0.0 10.0 0.0 0.0 0.0 10.0" Properties=species:S:1:pos:R:3 pbc="F F F"
C        4.98785450       4.32275400       5.73942100
N        4.98785450       5.59526900       5.00000000
C        4.98785450       4.32275400       4.26057900
H        5.92935650       5.98831900       5.00000000
H        4.07064350       4.11515400       6.28004700
H        4.07064350       4.11515400       3.71995300
H        5.89571350       4.01168100       6.24903300
H        5.89571350       4.01168100       3.75096700
