12
Lattice="10.0 0.0 0.0 0.0 10.0 0.0 0.0 0.0 10.0" Properties=species:S:1:pos:R:3 pbc="F F F"
O        5.04319600       4.31788000       5.00000000
C        5.03676700       5.73646600       5.00000000
C        6.36128500       3.80459200       5.00000000
C        3.59459800       6.19094600       5.00000000
H        5.56772900       6.11710500       5.88688100
H        5.56772900       6.11710500       4.11311900
H        6.27841500       2.71729600       5.00000000
H        6.91809600       4.12469600       4.10829000
H        6.91809600       4.12469600       5.89171000
H        3.08190400       5.81122600       4.11414500
H        3.08190400       5.81122600       5.88585500
H        3.53474200       7.28270400       5.00000000
