8
Lattice="10.0 0.0 0.0 0.0 10.0 0.0 0.0 0.0 10.0" Properties=species:S:1:pos:R:3 pbc="F F F"
C        4.90972850       5.23869450       5.00000000
O        5.07611250       6.44421850       5.00000000
O        3.67327950       4.66909850       5.00000000
H        3.04208250       5.41771650       5.00000000
C        5.98350450       4.19138650       5.00000000
H        6.95791750       4.67599950       5.00000000
H        5.87838950       3.55578150       5.88174700
H        5.87838950       3.55578150       4.11825300
