6
Lattice="10.0 0.0 0.0 0.0 10.0 0.0 0.0 0.0 10.0" Properties=species:S:1:pos:R:3:initial_magmoms:R:1 pbc="F F F"
C        4.23298750       4.90296300       5.00000000       0.10000000
C        5.21127850       6.05706000       5.00000000       0.60000000
H        4.75572750       3.94294000       5.00000000       0.00000000
H        3.59365250       4.98750600       5.88106100       0.00000000
H        3.59365250       4.98750600       4.11893900       0.00000000
O        6.40634750       5.99872200       5.00000000       0.30000000
