10
Lattice="10.0 0.0 0.0 0.0 10.0 0.0 0.0 0.0 10.0" Properties=species:S:1:pos:R:3 pbc="F F F"
O        5.00000000       5.00000000       6.33480200
C        5.00000000       5.00000000       5.10827100
C        5.00000000       6.28549000       4.31286900
C        5.00000000       3.71451000       4.31286900
H        5.00000000       7.13491700       4.99574600
H        5.00000000       2.86508300       4.99574600
H        4.11891400       6.33154800       3.66519800
H        5.88108600       6.33154800       3.66519800
H        5.88108600       3.66845200       3.66519800
H        4.11891400       3.66845200       3.66519800
