8
Lattice="10.0 0.0 0.0 0.0 10.0 0.0 0.0 0.0 10.0" Properties=species:S:1:pos:R:3 pbc="F F F"
C        4.42332500       5.38018250       5.00000000
C        5.92915200       5.22037850       5.00000000
Cl       3.59977200       3.79257650       5.00000000
H        4.07834600       5.91419550       5.88524800
H        4.07834600       5.91419550       4.11475200
H        6.40022800       6.20742350       5.00000000
H        6.26257100       4.67679650       5.88539800
H        6.26257100       4.67679650       4.11460200
