9
Lattice="10.0 0.0 0.0 0.0 10.0 0.0 0.0 0.0 10.0" Properties=species:S:1:pos:R:3 pbc="F F F"
O        5.44659400       6.57563650       4.90897000
C        5.09920600       5.39840150       4.89668700
N        6.00756600       4.37007550       4.85202600
C        3.65057300       4.95994750       4.90079200
H        5.73000000       3.42436350       5.07087800
H        3.02481900       5.83353450       4.72545900
H        3.46120600       4.20934250       4.12925000
H        3.38993500       4.52560550       5.87075000
H        6.97518100       4.61703850       5.01280200
