9
Lattice="10.0 0.0 0.0 0.0 10.0 0.0 0.0 0.0 10.0" Properties=species:S:1:pos:R:3 pbc="F F F"
C        6.53876450       5.26251300       5.00000000
C        5.02442150       5.40951300       5.00000000
S        4.26835350       3.75181700       5.00000000
H        2.98907550       4.15536300       5.00000000
H        4.69945150       5.95958300       5.88579300
H        4.69945150       5.95958300       4.11420700
H        7.01092450       6.24818300       5.00000000
H        6.87932550       4.72074600       5.88549400
H        6.87932550       4.72074600       4.11450600
