8
Lattice="10.0 0.0 0.0 0.0 10.0 0.0 0.0 0.0 10.0" Properties=species:S:1:pos:R:3:initial_magmoms:R:1 pbc="F F F"
C        5.62510650       4.42281250       5.00000000       0.00000000
C        4.62034950       5.57976650       5.00000000       0.00000000
O        3.36028750       4.99180450       5.00000000       1.00000000
H        4.76730550       6.19575650       5.89652900       0.00000000
H        4.76730550       6.19575650       4.10347100       0.00000000
H        6.63971250       4.82697550       5.00000000       0.00000000
H        5.48968950       3.80424350       5.88807100       0.00000000
H        5.48968950       3.80424350       4.11192900       0.00000000
