10
Lattice="10.0 0.0 0.0 0.0 10.0 0.0 0.0 0.0 10.0" Properties=species:S:1:pos:R:3 pbc="F F F"
C        5.82152200       4.52980050       5.00000000
C        4.61150800       5.45934950       5.00000000
N        3.30615700       4.79592050       5.00000000
H        6.76081800       5.09189650       5.00000000
H        5.81330400       3.88563850       5.88490900
H        5.81330400       3.88563850       4.11509100
H        4.64606900       6.11436150       4.12352200
H        4.64606900       6.11436150       5.87647800
H        3.23918200       4.18505850       5.81313200
H        3.23918200       4.18505850       4.18686800
