9
Lattice="10.0 0.0 0.0 0.0 10.0 0.0 0.0 0.0 10.0" Properties=species:S:1:pos:R:3 pbc="F F F"
C        6.08354700       4.51448100       5.00000000
C        4.91536600       5.47432500       5.00000000
O        3.72528300       4.68719400       5.00000000
H        2.96874300       5.29638800       5.00000000
H        4.95792300       6.12237100       5.88693300
H        4.95792300       6.12237100       4.11306700
H        7.03125700       5.05966300       5.00000000
H        6.04396500       3.87762900       5.88588100
H        6.04396500       3.87762900       4.11411900
