9
Lattice="10.0 0.0 0.0 0.0 10.0 0.0 0.0 0.0 10.0" Properties=species:S:1:pos:R:3 pbc="F F F"
C        5.00000000       6.16572500       4.92023200
O        5.00000000       5.00000000       5.72029200
C        5.00000000       3.83427500       4.92023200
H        5.00000000       7.01776900       5.60038500
H        5.89178400       6.21432000       4.27970800
H        4.10821600       6.21432000       4.27970800
H        5.00000000       2.98223100       5.60038500
H        4.10821600       3.78568000       4.27970800
H        5.89178400       3.78568000       4.27970800
