8
Lattice="10.0 0.0 0.0 0.0 10.0 0.0 0.0 0.0 10.0" Properties=species:S:1:pos:R:3 pbc="F F F"
C        5.00000000       4.81426400       3.99437450
Si       5.00000000       4.81426400       5.87454350
H        5.00000000       3.79450200       3.60247750
H        4.11686000       5.32414500       3.60247750
H        5.88314000       5.32414500       3.60247750
H        5.00000000       6.20549800       6.39752250
H        3.79515600       4.11864700       6.39752250
H        6.20484400       4.11864700       6.39752250
