9
Properties=species:S:1:pos:R:3 pbc="F F F"
C        0.00000000       1.36666800      -0.51371300
S        0.00000000       0.00000000       0.66427300
C        0.00000000      -1.36666800      -0.51371300
H        0.00000000       2.29668700       0.05728400
H        0.89164400       1.34568000      -1.14459600
H       -0.89164400       1.34568000      -1.14459600
H        0.00000000      -2.29668700       0.05728400
H       -0.89164400      -1.34568000      -1.14459600
H        0.89164400      -1.34568000      -1.14459600
