55
Properties=species:S:1:pos:R:3:tags:I:1 pbc="F F F"
Pt       0.00000000       0.00000000       0.00000000        1
Pt       2.35788374       0.00000000      -1.45725230        2
Pt       2.35788374       0.00000000       1.45725230        2
Pt      -2.35788374       0.00000000      -1.45725230        2
Pt      -2.35788374       0.00000000       1.45725230        2
Pt      -1.45725230       2.35788374       0.00000000        2
Pt       1.45725230       2.35788374       0.00000000        2
Pt      -1.45725230      -2.35788374       0.00000000        2
Pt       1.45725230      -2.35788374       0.00000000        2
Pt       0.00000000      -1.45725230       2.35788374        2
Pt       0.00000000       1.45725230       2.35788374        2
Pt       0.00000000      -1.45725230      -2.35788374        2
Pt       0.00000000       1.45725230      -2.35788374        2
Au       4.71576749       0.00000000      -2.91450459        3
Au       4.71576749       0.00000000       0.00000000        3
Au       4.71576749       0.00000000       2.91450459        3
Au      -4.71576749       0.00000000      -2.91450459        3
Au      -4.71576749       0.00000000       0.00000000        3
Au      -4.71576749       0.00000000       2.91450459        3
Au      -2.91450459       4.71576749       0.00000000        3
Au       0.00000000       4.71576749       0.00000000        3
Au       2.91450459       4.71576749       0.00000000        3
Au      -2.91450459      -4.71576749       0.00000000        3
Au       0.00000000      -4.71576749       0.00000000        3
Au       2.91450459      -4.71576749       0.00000000        3
Au       0.00000000      -2.91450459       4.71576749        3
Au       0.00000000       0.00000000       4.71576749        3
Au       0.00000000       2.91450459       4.71576749        3
Au       0.00000000      -2.91450459      -4.71576749        3
Pt       0.00000000       0.00000000      -4.71576749        3
Au       0.00000000       2.91450459      -4.71576749        3
Pt       2.35788374      -1.45725230       3.81513604        3
Au       2.35788374       1.45725230       3.81513604        3
Pt       2.35788374      -1.45725230      -3.81513604        3
Pt       2.35788374       1.45725230      -3.81513604        3
Pt      -2.35788374      -1.45725230       3.81513604        3
Pt      -2.35788374       1.45725230       3.81513604        3
Pt      -2.35788374      -1.45725230      -3.81513604        3
Pt      -2.35788374       1.45725230      -3.81513604        3
Pt       3.81513604       2.35788374      -1.45725230        3
Pt       3.81513604       2.35788374       1.45725230        3
Pt      -3.81513604       2.35788374      -1.45725230        3
Pt      -3.81513604       2.35788374       1.45725230        3
Pt       3.81513604      -2.35788374      -1.45725230        3
Pt       3.81513604      -2.35788374       1.45725230        3
Pt      -3.81513604      -2.35788374      -1.45725230        3
Pt      -3.81513604      -2.35788374       1.45725230        3
Pt      -1.45725230       3.81513604       2.35788374        3
Pt       1.45725230       3.81513604       2.35788374        3
Pt      -1.45725230      -3.81513604       2.35788374        3
Pt       1.45725230      -3.81513604       2.35788374        3
Pt      -1.45725230       3.81513604      -2.35788374        3
Pt       1.45725230       3.81513604      -2.35788374        3
Au      -1.45725230      -3.81513604      -2.35788374        3
Pt       1.45725230      -3.81513604      -2.35788374        3
