19
Properties=species:S:1:pos:R:3 pbc="F F F"
Cu      -1.80500000      -1.80500000       0.00000000
Cu      -1.80500000       0.00000000      -1.80500000
Pt      -3.61000000       0.00000000       0.00000000
Cu      -1.80500000       0.00000000       1.80500000
Cu      -1.80500000       1.80500000       0.00000000
Cu       0.00000000      -1.80500000      -1.80500000
Pt       0.00000000      -3.61000000       0.00000000
Cu       0.00000000      -1.80500000       1.80500000
Cu       1.80500000      -1.80500000       0.00000000
Pt       0.00000000       0.00000000      -3.61000000
Cu       0.00000000       1.80500000      -1.80500000
Cu       1.80500000       0.00000000      -1.80500000
Cu       0.00000000       0.00000000       0.00000000
Cu       0.00000000       1.80500000       1.80500000
Cu       1.80500000       0.00000000       1.80500000
Cu       1.80500000       1.80500000       0.00000000
Pt       0.00000000       0.00000000       3.61000000
Pt       0.00000000       3.61000000       0.00000000
Pt       3.61000000       0.00000000       0.00000000
