13
Properties=species:S:1:pos:R:3:tags:I:1 pbc="F F F"
Cu       0.00000000       0.00000000       0.00000000        1
Cu       2.11728336       0.00000000      -1.30855308        2
Ni       2.11728336       0.00000000       1.30855308        2
Al      -2.11728336       0.00000000      -1.30855308        2
Al      -2.11728336       0.00000000       1.30855308        2
Ni      -1.30855308       2.11728336       0.00000000        2
Ni       1.30855308       2.11728336       0.00000000        2
Ni      -1.30855308      -2.11728336       0.00000000        2
Al       1.30855308      -2.11728336       0.00000000        2
Ni       0.00000000      -1.30855308       2.11728336        2
Cu       0.00000000       1.30855308       2.11728336        2
Al       0.00000000      -1.30855308      -2.11728336        2
Ni       0.00000000       1.30855308      -2.11728336        2
