147
Lattice="24.72474338 0.0 0.0 0.0 24.72474338 0.0 0.0 0.0 24.72474338" Properties=species:S:1:pos:R:3:tags:I:1 pbc="F F F"
Au      12.36237169      12.36237169      12.36237169        1
Au      14.81649559      12.36237169      10.84563971        2
Au      14.81649559      12.36237169      13.87910367        2
Au       9.90824779      12.36237169      10.84563971        2
Au       9.90824779      12.36237169      13.87910367        2
Au      10.84563971      14.81649559      12.36237169        2
Au      13.87910367      14.81649559      12.36237169        2
Au      10.84563971       9.90824779      12.36237169        2
Au      13.87910367       9.90824779      12.36237169        2
Au      12.36237169      10.84563971      14.81649559        2
Au      12.36237169      13.87910367      14.81649559        2
Au      12.36237169      10.84563971       9.90824779        2
Au      12.36237169      13.87910367       9.90824779        2
Au      17.27061948      12.36237169       9.32890773        3
Au      17.27061948      12.36237169      12.36237169        3
Au      17.27061948      12.36237169      15.39583565        3
Au       7.45412390      12.36237169       9.32890773        3
Au       7.45412390      12.36237169      12.36237169        3
Au       7.45412390      12.36237169      15.39583565        3
Au       9.32890773      17.27061948      12.36237169        3
Au      12.36237169      17.27061948      12.36237169        3
Au      15.39583565      17.27061948      12.36237169        3
Au       9.32890773       7.45412390      12.36237169        3
Au      12.36237169       7.45412390      12.36237169        3
Au      15.39583565       7.45412390      12.36237169        3
Au      12.36237169       9.32890773      17.27061948        3
Au      12.36237169      12.36237169      17.27061948        3
Au      12.36237169      15.39583565      17.27061948        3
Au      12.36237169       9.32890773       7.45412390        3
Au      12.36237169      12.36237169       7.45412390        3
Au      12.36237169      15.39583565       7.45412390        3
Au      14.81649559      10.84563971      16.33322757        3
Au      14.81649559      13.87910367      16.33322757        3
Au      14.81649559      10.84563971       8.39151581        3
Au      14.81649559      13.87910367       8.39151581        3
Au       9.90824779      10.84563971      16.33322757        3
Au       9.90824779      13.87910367      16.33322757        3
Au       9.90824779      10.84563971       8.39151581        3
Au       9.90824779      13.87910367       8.39151581        3
Au      16.33322757      14.81649559      10.84563971        3
Au      16.33322757      14.81649559      13.87910367        3
Au       8.39151581      14.81649559      10.84563971        3
Au       8.39151581      14.81649559      13.87910367        3
Au      16.33322757       9.90824779      10.84563971        3
Au      16.33322757       9.90824779      13.87910367        3
Au       8.39151581       9.90824779      10.84563971        3
Au       8.39151581       9.90824779      13.87910367        3
Au      10.84563971      16.33322757      14.81649559        3
Au      13.87910367      16.33322757      14.81649559        3
Au      10.84563971       8.39151581      14.81649559        3
Au      13.87910367       8.39151581      14.81649559        3
Au      10.84563971      16.33322757       9.90824779        3
Au      13.87910367      16.33322757       9.90824779        3
Au      10.84563971       8.39151581       9.90824779        3
Au      13.87910367       8.39151581       9.90824779        3
Ag      19.72474338      12.36237169       7.81217575        4
Au      19.72474338      12.36237169      10.84563971        4
Au      19.72474338      12.36237169      13.87910367        4
Ag      19.72474338      12.36237169      16.91256763        4
Ag       5.00000000      12.36237169       7.81217575        4
Au       5.00000000      12.36237169      10.84563971        4
Au       5.00000000      12.36237169      13.87910367        4
Ag       5.00000000      12.36237169      16.91256763        4
Ag       7.81217575      19.72474338      12.36237169        4
Au      10.84563971      19.72474338      12.36237169        4
Au      13.87910367      19.72474338      12.36237169        4
Ag      16.91256763      19.72474338      12.36237169        4
Ag       7.81217575       5.00000000      12.36237169        4
Ag      10.84563971       5.00000000      12.36237169        4
Ag      13.87910367       5.00000000      12.36237169        4
Ag      16.91256763       5.00000000      12.36237169        4
Ag      12.36237169       7.81217575      19.72474338        4
Ag      12.36237169      10.84563971      19.72474338        4
Au      12.36237169      13.87910367      19.72474338        4
Ag      12.36237169      16.91256763      19.72474338        4
Ag      12.36237169       7.81217575       5.00000000        4
Ag      12.36237169      10.84563971       5.00000000        4
Ag      12.36237169      13.87910367       5.00000000        4
Ag      12.36237169      16.91256763       5.00000000        4
Ag      17.27061948      10.84563971      17.84995955        4
Ag      14.81649559       9.32890773      18.78735146        4
Ag      17.27061948      13.87910367      17.84995955        4
Au      14.81649559      12.36237169      18.78735146        4
Ag      14.81649559      15.39583565      18.78735146        4
Ag      17.27061948      10.84563971       6.87478383        4
Ag      14.81649559       9.32890773       5.93739192        4
Ag      17.27061948      13.87910367       6.87478383        4
Au      14.81649559      12.36237169       5.93739192        4
Ag      14.81649559      15.39583565       5.93739192        4
Ag       7.45412390      10.84563971      17.84995955        4
Ag       9.90824779       9.32890773      18.78735146        4
Ag       7.45412390      13.87910367      17.84995955        4
Au       9.90824779      12.36237169      18.78735146        4
Ag       9.90824779      15.39583565      18.78735146        4
Ag       7.45412390      10.84563971       6.87478383        4
Ag       9.90824779       9.32890773       5.93739192        4
Ag       7.45412390      13.87910367       6.87478383        4
Au       9.90824779      12.36237169       5.93739192        4
Ag       9.90824779      15.39583565       5.93739192        4
Ag      17.84995955      17.27061948      10.84563971        4
Au      18.78735146      14.81649559       9.32890773        4
Ag      17.84995955      17.27061948      13.87910367        4
Au      18.78735146      14.81649559      12.36237169        4
Au      18.78735146      14.81649559      15.39583565        4
Ag       6.87478383      17.27061948      10.84563971        4
Au       5.93739192      14.81649559       9.32890773        4
Ag       6.87478383      17.27061948      13.87910367        4
Au       5.93739192      14.81649559      12.36237169        4
Au       5.93739192      14.81649559      15.39583565        4
Au      17.84995955       7.45412390      10.84563971        4
Au      18.78735146       9.90824779       9.32890773        4
Au      17.84995955       7.45412390      13.87910367        4
Au      18.78735146       9.90824779      12.36237169        4
Au      18.78735146       9.90824779      15.39583565        4
Au       6.87478383       7.45412390      10.84563971        4
Au       5.93739192       9.90824779       9.32890773        4
Au       6.87478383       7.45412390      13.87910367        4
Au       5.93739192       9.90824779      12.36237169        4
Au       5.93739192       9.90824779      15.39583565        4
Au      10.84563971      17.84995955      17.27061948        4
Au       9.32890773      18.78735146      14.81649559        4
Au      13.87910367      17.84995955      17.27061948        4
Au      12.36237169      18.78735146      14.81649559        4
Au      15.39583565      18.78735146      14.81649559        4
Au      10.84563971       6.87478383      17.27061948        4
Au       9.32890773       5.93739192      14.81649559        4
Au      13.87910367       6.87478383      17.27061948        4
Au      12.36237169       5.93739192      14.81649559        4
Au      15.39583565       5.93739192      14.81649559        4
Au      10.84563971      17.84995955       7.45412390        4
Au       9.32890773      18.78735146       9.90824779        4
Au      13.87910367      17.84995955       7.45412390        4
Au      12.36237169      18.78735146       9.90824779        4
Au      15.39583565      18.78735146       9.90824779        4
Au      10.84563971       6.87478383       7.45412390        4
Au       9.32890773       5.93739192       9.90824779        4
Au      13.87910367       6.87478383       7.45412390        4
Au      12.36237169       5.93739192       9.90824779        4
Au      15.39583565       5.93739192       9.90824779        4
Au      16.33322757       8.39151581      16.33322757        4
Au      16.33322757      16.33322757      16.33322757        4
Au      16.33322757       8.39151581       8.39151581        4
Au      16.33322757      16.33322757       8.39151581        4
Au       8.39151581       8.39151581      16.33322757        4
Au       8.39151581      16.33322757      16.33322757        4
Au       8.39151581       8.39151581       8.39151581        4
Au       8.39151581      16.33322757       8.39151581        4
