44
Properties=species:S:1:pos:R:3 pbc="F F F"
Ni      -5.28000000       0.00000000       0.00000000
Cu      -3.52000000      -1.76000000       0.00000000
Cu      -3.52000000       0.00000000      -1.76000000
Ni      -3.52000000       0.00000000       1.76000000
Cu      -3.52000000       1.76000000       0.00000000
Ni      -1.76000000      -3.52000000       0.00000000
Cu       0.00000000      -5.28000000       0.00000000
Ni       0.00000000      -3.52000000      -1.76000000
Ni       0.00000000      -3.52000000       1.76000000
Cu      -1.76000000       0.00000000      -3.52000000
Ni       0.00000000      -1.76000000      -3.52000000
Pd       0.00000000       0.00000000      -5.28000000
Pd      -1.76000000      -1.76000000      -1.76000000
Ni      -1.76000000       0.00000000       0.00000000
Ni       0.00000000      -1.76000000       0.00000000
Ni       0.00000000       0.00000000      -1.76000000
Ni      -1.76000000      -1.76000000       1.76000000
Cu      -1.76000000       0.00000000       3.52000000
Ni       0.00000000      -1.76000000       3.52000000
Cu       0.00000000       0.00000000       1.76000000
Cu       0.00000000       0.00000000       5.28000000
Ni       0.00000000       1.76000000      -3.52000000
Cu      -1.76000000       1.76000000      -1.76000000
Ni      -1.76000000       3.52000000       0.00000000
Ni       0.00000000       1.76000000       0.00000000
Cu       0.00000000       3.52000000      -1.76000000
Ni      -1.76000000       1.76000000       1.76000000
Ni       0.00000000       1.76000000       3.52000000
Pd       0.00000000       3.52000000       1.76000000
Pd       0.00000000       5.28000000       0.00000000
Cu       1.76000000      -3.52000000       0.00000000
Ni       1.76000000       0.00000000      -3.52000000
Pd       1.76000000      -1.76000000      -1.76000000
Ni       1.76000000       0.00000000       0.00000000
Ni       3.52000000      -1.76000000       0.00000000
Pd       3.52000000       0.00000000      -1.76000000
Cu       1.76000000      -1.76000000       1.76000000
Pd       1.76000000       0.00000000       3.52000000
Ni       3.52000000       0.00000000       1.76000000
Pd       1.76000000       1.76000000      -1.76000000
Cu       1.76000000       3.52000000       0.00000000
Ni       3.52000000       1.76000000       0.00000000
Ni       1.76000000       1.76000000       1.76000000
Pd       5.28000000       0.00000000       0.00000000
