13
Lattice="14.3428369 0.0 0.0 0.0 14.3428369 0.0 0.0 0.0 14.3428369" Properties=species:S:1:pos:R:3:tags:I:1 pbc="F F F"
Cu       7.17141845       7.17141845       7.17141845        1
Cu       9.34283690       7.17141845       5.82940805        2
Cu       9.34283690       7.17141845       8.51342885        2
Cu       5.00000000       7.17141845       5.82940805        2
Cu       5.00000000       7.17141845       8.51342885        2
Cu       5.82940805       9.34283690       7.17141845        2
Cu       8.51342885       9.34283690       7.17141845        2
Cu       5.82940805       5.00000000       7.17141845        2
Ag       8.51342885       5.00000000       7.17141845        2
Ag       7.17141845       5.82940805       9.34283690        2
Ag       7.17141845       8.51342885       9.34283690        2
Ag       7.17141845       5.82940805       5.00000000        2
Ag       7.17141845       8.51342885       5.00000000        2
