19
Lattice="17.22 0.0 0.0 0.0 17.22 0.0 0.0 0.0 17.22" Properties=species:S:1:pos:R:3 pbc="F F F"
Cu       6.80500000       6.80500000       8.61000000
Cu       6.80500000       8.61000000       6.80500000
Pt       5.00000000       8.61000000       8.61000000
Cu       6.80500000       8.61000000      10.41500000
Cu       6.80500000      10.41500000       8.61000000
Cu       8.61000000       6.80500000       6.80500000
Pt       8.61000000       5.00000000       8.61000000
Cu       8.61000000       6.80500000      10.41500000
Cu      10.41500000       6.80500000       8.61000000
Pt       8.61000000       8.61000000       5.00000000
Cu       8.61000000      10.41500000       6.80500000
Cu      10.41500000       8.61000000       6.80500000
Cu       8.61000000       8.61000000       8.61000000
Cu       8.61000000      10.41500000      10.41500000
Cu      10.41500000       8.61000000      10.41500000
Cu      10.41500000      10.41500000       8.61000000
Pt       8.61000000       8.61000000      12.22000000
Pt       8.61000000      12.22000000       8.61000000
Pt      12.22000000       8.61000000       8.61000000
