10
Lattice="10.0 0.0 0.0 0.0 10.0 0.0 0.0 0.0 10.0" Properties=species:S:1:pos:R:3 pbc="F F F"
C        5.00000000       4.32723800       5.58363100
C        5.00000000       5.67276200       5.58363100
C        5.00000000       4.21802000       4.07576600
C        5.00000000       5.78198000       4.07576600
H        5.00000000       3.57760700       6.37017700
H        5.00000000       6.42239300       6.37017700
H        4.11069000       3.76075800       3.62982300
H        5.88931000       3.76075800       3.62982300
H        5.88931000       6.23924200       3.62982300
H        4.11069000       6.23924200       3.62982300
