12
Lattice="10.0 0.0 0.0 0.0 10.0 0.0 0.0 0.0 10.0" Properties=species:S:1:pos:R:3 pbc="F F F"
C        5.00000000       6.07114200       5.14762600
C        5.00000000       3.92885800       5.14762600
C        3.92885800       5.00000000       4.85237400
C        6.07114200       5.00000000       4.85237400
H        5.00000000       6.98685800       4.54992300
H        5.00000000       6.34292100       6.20752000
H        5.00000000       3.01314200       4.54992300
H        5.00000000       3.65707900       6.20752000
H        3.01314200       5.00000000       5.45007700
H        3.65707900       5.00000000       3.79248000
H        6.98685800       5.00000000       5.45007700
H        6.34292100       5.00000000       3.79248000
