36
Lattice="8.61 0.0 0.0 4.305 6.088189386016174 0.0 0.0 0.0 26.088189386016175" Properties=species:S:1:pos:R:3:tags:I:1 pbc="T T F"
Fe       0.00000000       2.02939646      10.00000000        4
Fe       2.87000000       2.02939646      10.00000000        4
Fe       5.74000000       2.02939646      10.00000000        4
Fe       1.43500000       4.05879292      10.00000000        4
Fe       4.30500000       4.05879292      10.00000000        4
Fe       7.17500000       4.05879292      10.00000000        4
Fe       2.87000000       6.08818939      10.00000000        4
Fe       5.74000000       6.08818939      10.00000000        4
Fe       8.61000000       6.08818939      10.00000000        4
Fe       0.00000000       0.00000000      12.02939646        3
Fe       2.87000000       0.00000000      12.02939646        3
Fe       5.74000000       0.00000000      12.02939646        3
Fe       1.43500000       2.02939646      12.02939646        3
Fe       4.30500000       2.02939646      12.02939646        3
Fe       7.17500000       2.02939646      12.02939646        3
Fe       2.87000000       4.05879292      12.02939646        3
Fe       5.74000000       4.05879292      12.02939646        3
Fe       8.61000000       4.05879292      12.02939646        3
Fe       0.00000000       2.02939646      14.05879292        2
Fe       2.87000000       2.02939646      14.05879292        2
Fe       5.74000000       2.02939646      14.05879292        2
Fe       1.43500000       4.05879292      14.05879292        2
Fe       4.30500000       4.05879292      14.05879292        2
Fe       7.17500000       4.05879292      14.05879292        2
Fe       2.87000000       6.08818939      14.05879292        2
Fe       5.74000000       6.08818939      14.05879292        2
Fe       8.61000000       6.08818939      14.05879292        2
Fe       0.00000000       0.00000000      16.08818939        1
Fe       2.87000000       0.00000000      16.08818939        1
Fe       5.74000000       0.00000000      16.08818939        1
Fe       1.43500000       2.02939646      16.08818939        1
Fe       4.30500000       2.02939646      16.08818939        1
Fe       7.17500000       2.02939646      16.08818939        1
Fe       2.87000000       4.05879292      16.08818939        1
Fe       5.74000000       4.05879292      16.08818939        1
Fe       8.61000000       4.05879292      16.08818939        1
