8
Lattice="10.0 0.0 0.0 0.0 10.0 0.0 0.0 0.0 10.0" Properties=species:S:1:pos:R:3 pbc="F F F"
C        4.04290400       4.91115650       5.00000000
O        4.26309400       3.71681350       5.00000000
O        4.97411300       5.88186350       5.00000000
H        3.04575300       5.36962050       5.00000000
C        6.33101200       5.39230950       5.00000000
H        6.95424700       6.28318650       5.00000000
H        6.51523400       4.78885050       5.88939700
H        6.51523400       4.78885050       4.11060300
