14
Lattice="10.0 0.0 0.0 0.0 10.0 0.0 0.0 0.0 10.0" Properties=species:S:1:pos:R:3 pbc="F F F"
C        5.00000000       4.88725150       5.23473800
H        5.00000000       4.88725150       6.33305800
C        5.00000000       6.33754150       4.76155500
H        5.00000000       6.38124850       3.66694200
H        4.11451800       6.87194650       5.11908600
H        5.88548200       6.87194650       5.11908600
C        6.25598800       4.16210650       4.76155500
H        6.29383900       4.14025350       3.66694200
H        7.16153700       4.66175350       5.11908600
H        6.27605500       3.12805350       5.11908600
C        3.74401200       4.16210650       4.76155500
H        3.70616100       4.14025350       3.66694200
H        3.72394500       3.12805350       5.11908600
H        2.83846300       4.66175350       5.11908600
