12
Lattice="10.0 0.0 0.0 0.0 10.0 0.0 0.0 0.0 10.0" Properties=species:S:1:pos:R:3 pbc="F F F"
C        5.00000000       5.00000000       6.10939850
C        5.00000000       5.00000000       4.77017950
H        5.00000000       5.92430200       6.67900050
H        5.00000000       4.07569800       6.67900050
C        5.00000000       6.27268300       3.97178850
H        5.00000000       7.15304200       4.61900350
H        5.88021100       6.32354200       3.32099950
H        4.11978900       6.32354200       3.32099950
C        5.00000000       3.72731700       3.97178850
H        5.00000000       2.84695800       4.61900350
H        4.11978900       3.67645800       3.32099950
H        5.88021100       3.67645800       3.32099950
