10
Properties=species:S:1:pos:R:3 pbc="F F F"
C        0.00000000       0.00000000       0.31502600
C        0.00000000      -0.76792000      -0.93203200
C        0.00000000       0.76792000      -0.93203200
C        0.00000000       0.00000000       1.64002700
H       -0.91279400      -1.27178900      -1.23930300
H        0.91279400      -1.27178900      -1.23930300
H        0.91279400       1.27178900      -1.23930300
H       -0.91279400       1.27178900      -1.23930300
H        0.00000000      -0.92690800       2.20564000
H        0.00000000       0.92690800       2.20564000
