3900
Lattice="77.21606254577637 -36.40000104904175 0.0 77.21606254577637 36.40000104904175 0.0 0.0 0.0 16.0" Properties=species:S:1:pos:R:3:move_mask:L:1 pbc="T T F"
Cu       0.00000000       0.00000000       5.14773750  F
Cu       2.57386875       0.00000000       5.14773750  F
Cu       0.00000000       0.00000000       2.57386875  F
Cu       5.14773750       0.00000000       5.14773750  F
Cu       2.57386875       0.00000000       2.57386875  F
Cu       0.00000000       0.00000000       0.00000000  F
Cu       6.43467188      -1.82000005       3.86080313  F
Cu       7.72160625       0.00000000       5.14773750  F
Cu       5.14773750       0.00000000       2.57386875  F
Cu       6.43467188       1.82000005       3.86080313  F
Cu       2.57386875       0.00000000       0.00000000  F
Cu       9.00854015      -1.82000005       3.86080313  F
Cu      10.29547501       0.00000000       5.14773750  F
Cu       6.43467188      -1.82000005       1.28693438  F
Cu       7.72160625       0.00000000       2.57386875  F
Cu       9.00854015       1.82000005       3.86080313  F
Cu       5.14773750       0.00000000       0.00000000  F
Cu       6.43467188       1.82000005       1.28693438  F
Cu      11.58240891      -1.82000005       3.86080313  F
Cu      12.86934376       0.00000000       5.14773750  F
Cu       9.00854015      -1.82000005       1.28693438  F
Cu      10.29547501       0.00000000       2.57386875  F
Cu      11.58240891       1.82000005       3.86080313  F
Cu       7.72160625       0.00000000       0.00000000  F
Cu       9.00854015       1.82000005       1.28693438  F
Cu      11.58240891      -1.82000005       1.28693438  F
Cu      12.86934376       0.00000000       2.57386875  F
Cu      10.29547501       0.00000000       0.00000000  F
Cu      11.58240891       1.82000005       1.28693438  F
Cu      12.86934376       0.00000000       0.00000000  F
Cu       6.66675938       1.86096196       6.63090813  T
Cu      11.27474762       1.86722312       6.67236099  T
O        7.13875234      -3.66626805       7.25212868  T
O       11.50574077      -0.00700919       6.65427400  T
O        6.51716536      -0.03087221       6.65320501  T
Cu      11.34218132      -1.90433701       6.62987327  T
Cu       6.66528884      -1.90903480       6.64390198  T
O       10.75626988       3.62731476       7.22157004  T
Cu       8.94711272       3.49950968       7.32877900  T
Cu       7.72160625       3.64000010       5.14773750  F
Cu      10.29547501       3.64000010       5.14773750  F
Cu       7.72160625       3.64000010       2.57386875  F
Cu      12.86934376       3.64000010       5.14773750  F
Cu      10.29547501       3.64000010       2.57386875  F
Cu       7.72160625       3.64000010       0.00000000  F
Cu      14.15627813       1.82000005       3.86080313  F
Cu      15.44321251       3.64000010       5.14773750  F
Cu      12.86934376       3.64000010       2.57386875  F
Cu      14.15627813       5.46000016       3.86080313  F
Cu      10.29547501       3.64000010       0.00000000  F
Cu      16.73014641       1.82000005       3.86080313  F
Cu      18.01708126       3.64000010       5.14773750  F
Cu      14.15627813       1.82000005       1.28693438  F
Cu      15.44321251       3.64000010       2.57386875  F
Cu      16.73014641       5.46000016       3.86080313  F
Cu      12.86934376       3.64000010       0.00000000  F
Cu      14.15627813       5.46000016       1.28693438  F
Cu      19.30401516       1.82000005       3.86080313  F
Cu      20.59095001       3.64000010       5.14773750  F
Cu      16.73014641       1.82000005       1.28693438  F
Cu      18.01708126       3.64000010       2.57386875  F
Cu      19.30401516       5.46000016       3.86080313  F
Cu      15.44321251       3.64000010       0.00000000  F
Cu      16.73014641       5.46000016       1.28693438  F
Cu      19.30401516       1.82000005       1.28693438  F
Cu      20.59095001       3.64000010       2.57386875  F
Cu      18.01708126       3.64000010       0.00000000  F
Cu      19.30401516       5.46000016       1.28693438  F
Cu      20.59095001       3.64000010       0.00000000  F
Cu      14.38836564       5.50096207       6.63090813  T
Cu      18.99635387       5.50722323       6.67236099  T
O       14.86035860      -0.02626795       7.25212868  T
O       19.22734702       3.63299091       6.65427400  T
O       14.23877161       3.60912789       6.65320501  T
Cu      19.06378758       1.73566310       6.62987327  T
Cu      14.38689509       1.73096530       6.64390198  T
O       18.47787614       7.26731486       7.22157004  T
Cu      16.66871898       7.13950978       7.32877900  T
Cu      15.44321251       7.28000021       5.14773750  F
Cu      18.01708126       7.28000021       5.14773750  F
Cu      15.44321251       7.28000021       2.57386875  F
Cu      20.59095001       7.28000021       5.14773750  F
Cu      18.01708126       7.28000021       2.57386875  F
Cu      15.44321251       7.28000021       0.00000000  F
Cu      21.87788439       5.46000016       3.86080313  F
Cu      23.16481876       7.28000021       5.14773750  F
Cu      20.59095001       7.28000021       2.57386875  F
Cu      21.87788439       9.10000026       3.86080313  F
Cu      18.01708126       7.28000021       0.00000000  F
Cu      24.45175266       5.46000016       3.86080313  F
Cu      25.73868752       7.28000021       5.14773750  F
Cu      21.87788439       5.46000016       1.28693438  F
Cu      23.16481876       7.28000021       2.57386875  F
Cu      24.45175266       9.10000026       3.86080313  F
Cu      20.59095001       7.28000021       0.00000000  F
Cu      21.87788439       9.10000026       1.28693438  F
Cu      27.02562141       5.46000016       3.86080313  F
Cu      28.31255627       7.28000021       5.14773750  F
Cu      24.45175266       5.46000016       1.28693438  F
Cu      25.73868752       7.28000021       2.57386875  F
Cu      27.02562141       9.10000026       3.86080313  F
Cu      23.16481876       7.28000021       0.00000000  F
Cu      24.45175266       9.10000026       1.28693438  F
Cu      27.02562141       5.46000016       1.28693438  F
Cu      28.31255627       7.28000021       2.57386875  F
Cu      25.73868752       7.28000021       0.00000000  F
Cu      27.02562141       9.10000026       1.28693438  F
Cu      28.31255627       7.28000021       0.00000000  F
Cu      22.10997189       9.14096217       6.63090813  T
Cu      26.71796013       9.14722333       6.67236099  T
O       22.58196485       3.61373216       7.25212868  T
O       26.94895328       7.27299102       6.65427400  T
O       21.96037787       7.24912800       6.65320501  T
Cu      26.78539383       5.37566320       6.62987327  T
Cu      22.10850135       5.37096541       6.64390198  T
O       26.19948239      10.90731497       7.22157004  T
Cu      24.39032523      10.77950989       7.32877900  T
Cu      23.16481876      10.92000031       5.14773750  F
Cu      25.73868752      10.92000031       5.14773750  F
Cu      23.16481876      10.92000031       2.57386875  F
Cu      28.31255627      10.92000031       5.14773750  F
Cu      25.73868752      10.92000031       2.57386875  F
Cu      23.16481876      10.92000031       0.00000000  F
Cu      29.59949064       9.10000026       3.86080313  F
Cu      30.88642502      10.92000031       5.14773750  F
Cu      28.31255627      10.92000031       2.57386875  F
Cu      29.59949064      12.74000037       3.86080313  F
Cu      25.73868752      10.92000031       0.00000000  F
Cu      32.17335892       9.10000026       3.86080313  F
Cu      33.46029377      10.92000031       5.14773750  F
Cu      29.59949064       9.10000026       1.28693438  F
Cu      30.88642502      10.92000031       2.57386875  F
Cu      32.17335892      12.74000037       3.86080313  F
Cu      28.31255627      10.92000031       0.00000000  F
Cu      29.59949064      12.74000037       1.28693438  F
Cu      34.74722767       9.10000026       3.86080313  F
Cu      36.03416252      10.92000031       5.14773750  F
Cu      32.17335892       9.10000026       1.28693438  F
Cu      33.46029377      10.92000031       2.57386875  F
Cu      34.74722767      12.74000037       3.86080313  F
Cu      30.88642502      10.92000031       0.00000000  F
Cu      32.17335892      12.74000037       1.28693438  F
Cu      34.74722767       9.10000026       1.28693438  F
Cu      36.03416252      10.92000031       2.57386875  F
Cu      33.46029377      10.92000031       0.00000000  F
Cu      34.74722767      12.74000037       1.28693438  F
Cu      36.03416252      10.92000031       0.00000000  F
Cu      29.83157815      12.78096228       6.63090813  T
Cu      34.43956638      12.78722344       6.67236099  T
O       30.30357111       7.25373226       7.25212868  T
O       34.67055953      10.91299112       6.65427400  T
O       29.68198412      10.88912810       6.65320501  T
Cu      34.50700009       9.01566331       6.62987327  T
Cu      29.83010760       9.01096551       6.64390198  T
O       33.92108865      14.54731507       7.22157004  T
Cu      32.11193148      14.41950999       7.32877900  T
Cu      30.88642502      14.56000042       5.14773750  F
Cu      33.46029377      14.56000042       5.14773750  F
Cu      30.88642502      14.56000042       2.57386875  F
Cu      36.03416252      14.56000042       5.14773750  F
Cu      33.46029377      14.56000042       2.57386875  F
Cu      30.88642502      14.56000042       0.00000000  F
Cu      37.32109690      12.74000037       3.86080313  F
Cu      38.60803127      14.56000042       5.14773750  F
Cu      36.03416252      14.56000042       2.57386875  F
Cu      37.32109690      16.38000047       3.86080313  F
Cu      33.46029377      14.56000042       0.00000000  F
Cu      39.89496517      12.74000037       3.86080313  F
Cu      41.18190002      14.56000042       5.14773750  F
Cu      37.32109690      12.74000037       1.28693438  F
Cu      38.60803127      14.56000042       2.57386875  F
Cu      39.89496517      16.38000047       3.86080313  F
Cu      36.03416252      14.56000042       0.00000000  F
Cu      37.32109690      16.38000047       1.28693438  F
Cu      42.46883392      12.74000037       3.86080313  F
Cu      43.75576878      14.56000042       5.14773750  F
Cu      39.89496517      12.74000037       1.28693438  F
Cu      41.18190002      14.56000042       2.57386875  F
Cu      42.46883392      16.38000047       3.86080313  F
Cu      38.60803127      14.56000042       0.00000000  F
Cu      39.89496517      16.38000047       1.28693438  F
Cu      42.46883392      12.74000037       1.28693438  F
Cu      43.75576878      14.56000042       2.57386875  F
Cu      41.18190002      14.56000042       0.00000000  F
Cu      42.46883392      16.38000047       1.28693438  F
Cu      43.75576878      14.56000042       0.00000000  F
Cu      37.55318440      16.42096238       6.63090813  T
Cu      42.16117264      16.42722354       6.67236099  T
O       38.02517736      10.89373237       7.25212868  T
O       42.39216579      14.55299123       6.65427400  T
O       37.40359038      14.52912821       6.65320501  T
Cu      42.22860634      12.65566341       6.62987327  T
Cu      37.55171386      12.65096561       6.64390198  T
O       41.64269490      18.18731518       7.22157004  T
Cu      39.83353774      18.05951010       7.32877900  T
Cu      38.60803127      18.20000052       5.14773750  F
Cu      41.18190002      18.20000052       5.14773750  F
Cu      38.60803127      18.20000052       2.57386875  F
Cu      43.75576878      18.20000052       5.14773750  F
Cu      41.18190002      18.20000052       2.57386875  F
Cu      38.60803127      18.20000052       0.00000000  F
Cu      45.04270315      16.38000047       3.86080313  F
Cu      46.32963753      18.20000052       5.14773750  F
Cu      43.75576878      18.20000052       2.57386875  F
Cu      45.04270315      20.02000058       3.86080313  F
Cu      41.18190002      18.20000052       0.00000000  F
Cu      47.61657143      16.38000047       3.86080313  F
Cu      48.90350628      18.20000052       5.14773750  F
Cu      45.04270315      16.38000047       1.28693438  F
Cu      46.32963753      18.20000052       2.57386875  F
Cu      47.61657143      20.02000058       3.86080313  F
Cu      43.75576878      18.20000052       0.00000000  F
Cu      45.04270315      20.02000058       1.28693438  F
Cu      50.19044018      16.38000047       3.86080313  F
Cu      51.47737503      18.20000052       5.14773750  F
Cu      47.61657143      16.38000047       1.28693438  F
Cu      48.90350628      18.20000052       2.57386875  F
Cu      50.19044018      20.02000058       3.86080313  F
Cu      46.32963753      18.20000052       0.00000000  F
Cu      47.61657143      20.02000058       1.28693438  F
Cu      50.19044018      16.38000047       1.28693438  F
Cu      51.47737503      18.20000052       2.57386875  F
Cu      48.90350628      18.20000052       0.00000000  F
Cu      50.19044018      20.02000058       1.28693438  F
Cu      51.47737503      18.20000052       0.00000000  F
Cu      45.27479066      20.06096249       6.63090813  T
Cu      49.88277889      20.06722365       6.67236099  T
O       45.74678362      14.53373247       7.25212868  T
O       50.11377204      18.19299133       6.65427400  T
O       45.12519663      18.16912831       6.65320501  T
Cu      49.95021260      16.29566352       6.62987327  T
Cu      45.27332011      16.29096572       6.64390198  T
O       49.36430116      21.82731528       7.22157004  T
Cu      47.55514399      21.69951020       7.32877900  T
Cu      46.32963753      21.84000063       5.14773750  F
Cu      48.90350628      21.84000063       5.14773750  F
Cu      46.32963753      21.84000063       2.57386875  F
Cu      51.47737503      21.84000063       5.14773750  F
Cu      48.90350628      21.84000063       2.57386875  F
Cu      46.32963753      21.84000063       0.00000000  F
Cu      52.76430941      20.02000058       3.86080313  F
Cu      54.05124378      21.84000063       5.14773750  F
Cu      51.47737503      21.84000063       2.57386875  F
Cu      52.76430941      23.66000068       3.86080313  F
Cu      48.90350628      21.84000063       0.00000000  F
Cu      55.33817768      20.02000058       3.86080313  F
Cu      56.62511253      21.84000063       5.14773750  F
Cu      52.76430941      20.02000058       1.28693438  F
Cu      54.05124378      21.84000063       2.57386875  F
Cu      55.33817768      23.66000068       3.86080313  F
Cu      51.47737503      21.84000063       0.00000000  F
Cu      52.76430941      23.66000068       1.28693438  F
Cu      57.91204643      20.02000058       3.86080313  F
Cu      59.19898129      21.84000063       5.14773750  F
Cu      55.33817768      20.02000058       1.28693438  F
Cu      56.62511253      21.84000063       2.57386875  F
Cu      57.91204643      23.66000068       3.86080313  F
Cu      54.05124378      21.84000063       0.00000000  F
Cu      55.33817768      23.66000068       1.28693438  F
Cu      57.91204643      20.02000058       1.28693438  F
Cu      59.19898129      21.84000063       2.57386875  F
Cu      56.62511253      21.84000063       0.00000000  F
Cu      57.91204643      23.66000068       1.28693438  F
Cu      59.19898129      21.84000063       0.00000000  F
Cu      52.99639691      23.70096259       6.63090813  T
Cu      57.60438515      23.70722375       6.67236099  T
O       53.46838987      18.17373258       7.25212868  T
O       57.83537830      21.83299144       6.65427400  T
O       52.84680289      21.80912842       6.65320501  T
Cu      57.67181885      19.93566362       6.62987327  T
Cu      52.99492636      19.93096582       6.64390198  T
O       57.08590741      25.46731539       7.22157004  T
Cu      55.27675025      25.33951031       7.32877900  T
Cu      54.05124378      25.48000073       5.14773750  F
Cu      56.62511253      25.48000073       5.14773750  F
Cu      54.05124378      25.48000073       2.57386875  F
Cu      59.19898129      25.48000073       5.14773750  F
Cu      56.62511253      25.48000073       2.57386875  F
Cu      54.05124378      25.48000073       0.00000000  F
Cu      60.48591566      23.66000068       3.86080313  F
Cu      61.77285004      25.48000073       5.14773750  F
Cu      59.19898129      25.48000073       2.57386875  F
Cu      60.48591566      27.30000079       3.86080313  F
Cu      56.62511253      25.48000073       0.00000000  F
Cu      63.05978394      23.66000068       3.86080313  F
Cu      64.34671879      25.48000073       5.14773750  F
Cu      60.48591566      23.66000068       1.28693438  F
Cu      61.77285004      25.48000073       2.57386875  F
Cu      63.05978394      27.30000079       3.86080313  F
Cu      59.19898129      25.48000073       0.00000000  F
Cu      60.48591566      27.30000079       1.28693438  F
Cu      65.63365269      23.66000068       3.86080313  F
Cu      66.92058754      25.48000073       5.14773750  F
Cu      63.05978394      23.66000068       1.28693438  F
Cu      64.34671879      25.48000073       2.57386875  F
Cu      65.63365269      27.30000079       3.86080313  F
Cu      61.77285004      25.48000073       0.00000000  F
Cu      63.05978394      27.30000079       1.28693438  F
Cu      65.63365269      23.66000068       1.28693438  F
Cu      66.92058754      25.48000073       2.57386875  F
Cu      64.34671879      25.48000073       0.00000000  F
Cu      65.63365269      27.30000079       1.28693438  F
Cu      66.92058754      25.48000073       0.00000000  F
Cu      60.71800317      27.34096270       6.63090813  T
Cu      65.32599140      27.34722386       6.67236099  T
O       61.18999613      21.81373268       7.25212868  T
O       65.55698455      25.47299154       6.65427400  T
O       60.56840914      25.44912852       6.65320501  T
Cu      65.39342511      23.57566373       6.62987327  T
Cu      60.71653262      23.57096593       6.64390198  T
O       64.80751367      29.10731549       7.22157004  T
Cu      62.99835650      28.97951041       7.32877900  T
Cu      61.77285004      29.12000084       5.14773750  F
Cu      64.34671879      29.12000084       5.14773750  F
Cu      61.77285004      29.12000084       2.57386875  F
Cu      66.92058754      29.12000084       5.14773750  F
Cu      64.34671879      29.12000084       2.57386875  F
Cu      61.77285004      29.12000084       0.00000000  F
Cu      68.20752192      27.30000079       3.86080313  F
Cu      69.49445629      29.12000084       5.14773750  F
Cu      66.92058754      29.12000084       2.57386875  F
Cu      68.20752192      30.94000089       3.86080313  F
Cu      64.34671879      29.12000084       0.00000000  F
Cu      70.78139019      27.30000079       3.86080313  F
Cu      72.06832504      29.12000084       5.14773750  F
Cu      68.20752192      27.30000079       1.28693438  F
Cu      69.49445629      29.12000084       2.57386875  F
Cu      70.78139019      30.94000089       3.86080313  F
Cu      66.92058754      29.12000084       0.00000000  F
Cu      68.20752192      30.94000089       1.28693438  F
Cu      73.35525894      27.30000079       3.86080313  F
Cu      74.64219379      29.12000084       5.14773750  F
Cu      70.78139019      27.30000079       1.28693438  F
Cu      72.06832504      29.12000084       2.57386875  F
Cu      73.35525894      30.94000089       3.86080313  F
Cu      69.49445629      29.12000084       0.00000000  F
Cu      70.78139019      30.94000089       1.28693438  F
Cu      73.35525894      27.30000079       1.28693438  F
Cu      74.64219379      29.12000084       2.57386875  F
Cu      72.06832504      29.12000084       0.00000000  F
Cu      73.35525894      30.94000089       1.28693438  F
Cu      74.64219379      29.12000084       0.00000000  F
Cu      68.43960942      30.98096280       6.63090813  T
Cu      73.04759766      30.98722396       6.67236099  T
O       68.91160238      25.45373279       7.25212868  T
O       73.27859080      29.11299165       6.65427400  T
O       68.29001540      29.08912863       6.65320501  T
Cu      73.11503136      27.21566383       6.62987327  T
Cu      68.43813887      27.21096603       6.64390198  T
O       72.52911992      32.74731560       7.22157004  T
Cu      70.71996276      32.61951052       7.32877900  T
Cu      69.49445629      32.76000094       5.14773750  F
Cu      72.06832504      32.76000094       5.14773750  F
Cu      69.49445629      32.76000094       2.57386875  F
Cu      74.64219379      32.76000094       5.14773750  F
Cu      72.06832504      32.76000094       2.57386875  F
Cu      69.49445629      32.76000094       0.00000000  F
Cu      75.92912817      30.94000089       3.86080313  F
Cu      77.21606255      32.76000094       5.14773750  F
Cu      74.64219379      32.76000094       2.57386875  F
Cu      75.92912817      34.58000100       3.86080313  F
Cu      72.06832504      32.76000094       0.00000000  F
Cu      78.50299644      30.94000089       3.86080313  F
Cu      79.78993130      32.76000094       5.14773750  F
Cu      75.92912817      30.94000089       1.28693438  F
Cu      77.21606255      32.76000094       2.57386875  F
Cu      78.50299644      34.58000100       3.86080313  F
Cu      74.64219379      32.76000094       0.00000000  F
Cu      75.92912817      34.58000100       1.28693438  F
Cu      81.07686520      30.94000089       3.86080313  F
Cu      82.36380005      32.76000094       5.14773750  F
Cu      78.50299644      30.94000089       1.28693438  F
Cu      79.78993130      32.76000094       2.57386875  F
Cu      81.07686520      34.58000100       3.86080313  F
Cu      77.21606255      32.76000094       0.00000000  F
Cu      78.50299644      34.58000100       1.28693438  F
Cu      81.07686520      30.94000089       1.28693438  F
Cu      82.36380005      32.76000094       2.57386875  F
Cu      79.78993130      32.76000094       0.00000000  F
Cu      81.07686520      34.58000100       1.28693438  F
Cu      82.36380005      32.76000094       0.00000000  F
Cu      76.16121568      34.62096291       6.63090813  T
Cu      80.76920391      34.62722407       6.67236099  T
O       76.63320863      29.09373289       7.25212868  T
O       81.00019706      32.75299175       6.65427400  T
O       76.01162165      32.72912873       6.65320501  T
Cu      80.83663762      30.85566394       6.62987327  T
Cu      76.15974513      30.85096614       6.64390198  T
O       80.25072617      36.38731570       7.22157004  T
Cu      78.44156901      36.25951062       7.32877900  T
Cu       7.72160625      -3.64000010       5.14773750  F
Cu      10.29547501      -3.64000010       5.14773750  F
Cu       7.72160625      -3.64000010       2.57386875  F
Cu      12.86934376      -3.64000010       5.14773750  F
Cu      10.29547501      -3.64000010       2.57386875  F
Cu       7.72160625      -3.64000010       0.00000000  F
Cu      14.15627813      -5.46000016       3.86080313  F
Cu      15.44321251      -3.64000010       5.14773750  F
Cu      12.86934376      -3.64000010       2.57386875  F
Cu      14.15627813      -1.82000005       3.86080313  F
Cu      10.29547501      -3.64000010       0.00000000  F
Cu      16.73014641      -5.46000016       3.86080313  F
Cu      18.01708126      -3.64000010       5.14773750  F
Cu      14.15627813      -5.46000016       1.28693438  F
Cu      15.44321251      -3.64000010       2.57386875  F
Cu      16.73014641      -1.82000005       3.86080313  F
Cu      12.86934376      -3.64000010       0.00000000  F
Cu      14.15627813      -1.82000005       1.28693438  F
Cu      19.30401516      -5.46000016       3.86080313  F
Cu      20.59095001      -3.64000010       5.14773750  F
Cu      16.73014641      -5.46000016       1.28693438  F
Cu      18.01708126      -3.64000010       2.57386875  F
Cu      19.30401516      -1.82000005       3.86080313  F
Cu      15.44321251      -3.64000010       0.00000000  F
Cu      16.73014641      -1.82000005       1.28693438  F
Cu      19.30401516      -5.46000016       1.28693438  F
Cu      20.59095001      -3.64000010       2.57386875  F
Cu      18.01708126      -3.64000010       0.00000000  F
Cu      19.30401516      -1.82000005       1.28693438  F
Cu      20.59095001      -3.64000010       0.00000000  F
Cu      14.38836564      -1.77903814       6.63090813  T
Cu      18.99635387      -1.77277698       6.67236099  T
O       14.86035860      -7.30626816       7.25212868  T
O       19.22734702      -3.64700930       6.65427400  T
O       14.23877161      -3.67087232       6.65320501  T
Cu      19.06378758      -5.54433711       6.62987327  T
Cu      14.38689509      -5.54903491       6.64390198  T
O       18.47787614      -0.01268535       7.22157004  T
Cu      16.66871898      -0.14049043       7.32877900  T
Cu      15.44321251       0.00000000       5.14773750  F
Cu      18.01708126       0.00000000       5.14773750  F
Cu      15.44321251       0.00000000       2.57386875  F
Cu      20.59095001       0.00000000       5.14773750  F
Cu      18.01708126       0.00000000       2.57386875  F
Cu      15.44321251       0.00000000       0.00000000  F
Cu      21.87788439      -1.82000005       3.86080313  F
Cu      23.16481876       0.00000000       5.14773750  F
Cu      20.59095001       0.00000000       2.57386875  F
Cu      21.87788439       1.82000005       3.86080313  F
Cu      18.01708126       0.00000000       0.00000000  F
Cu      24.45175266      -1.82000005       3.86080313  F
Cu      25.73868752       0.00000000       5.14773750  F
Cu      21.87788439      -1.82000005       1.28693438  F
Cu      23.16481876       0.00000000       2.57386875  F
Cu      24.45175266       1.82000005       3.86080313  F
Cu      20.59095001       0.00000000       0.00000000  F
Cu      21.87788439       1.82000005       1.28693438  F
Cu      27.02562141      -1.82000005       3.86080313  F
Cu      28.31255627       0.00000000       5.14773750  F
Cu      24.45175266      -1.82000005       1.28693438  F
Cu      25.73868752       0.00000000       2.57386875  F
Cu      27.02562141       1.82000005       3.86080313  F
Cu      23.16481876       0.00000000       0.00000000  F
Cu      24.45175266       1.82000005       1.28693438  F
Cu      27.02562141      -1.82000005       1.28693438  F
Cu      28.31255627       0.00000000       2.57386875  F
Cu      25.73868752       0.00000000       0.00000000  F
Cu      27.02562141       1.82000005       1.28693438  F
Cu      28.31255627       0.00000000       0.00000000  F
Cu      22.10997189       1.86096196       6.63090813  T
Cu      26.71796013       1.86722312       6.67236099  T
O       22.58196485      -3.66626805       7.25212868  T
O       26.94895328      -0.00700919       6.65427400  T
O       21.96037787      -0.03087221       6.65320501  T
Cu      26.78539383      -1.90433701       6.62987327  T
Cu      22.10850135      -1.90903480       6.64390198  T
O       26.19948239       3.62731476       7.22157004  T
Cu      24.39032523       3.49950968       7.32877900  T
Cu      23.16481876       3.64000010       5.14773750  F
Cu      25.73868752       3.64000010       5.14773750  F
Cu      23.16481876       3.64000010       2.57386875  F
Cu      28.31255627       3.64000010       5.14773750  F
Cu      25.73868752       3.64000010       2.57386875  F
Cu      23.16481876       3.64000010       0.00000000  F
Cu      29.59949064       1.82000005       3.86080313  F
Cu      30.88642502       3.64000010       5.14773750  F
Cu      28.31255627       3.64000010       2.57386875  F
Cu      29.59949064       5.46000016       3.86080313  F
Cu      25.73868752       3.64000010       0.00000000  F
Cu      32.17335892       1.82000005       3.86080313  F
Cu      33.46029377       3.64000010       5.14773750  F
Cu      29.59949064       1.82000005       1.28693438  F
Cu      30.88642502       3.64000010       2.57386875  F
Cu      32.17335892       5.46000016       3.86080313  F
Cu      28.31255627       3.64000010       0.00000000  F
Cu      29.59949064       5.46000016       1.28693438  F
Cu      34.74722767       1.82000005       3.86080313  F
Cu      36.03416252       3.64000010       5.14773750  F
Cu      32.17335892       1.82000005       1.28693438  F
Cu      33.46029377       3.64000010       2.57386875  F
Cu      34.74722767       5.46000016       3.86080313  F
Cu      30.88642502       3.64000010       0.00000000  F
Cu      32.17335892       5.46000016       1.28693438  F
Cu      34.74722767       1.82000005       1.28693438  F
Cu      36.03416252       3.64000010       2.57386875  F
Cu      33.46029377       3.64000010       0.00000000  F
Cu      34.74722767       5.46000016       1.28693438  F
Cu      36.03416252       3.64000010       0.00000000  F
Cu      29.83157815       5.50096207       6.63090813  T
Cu      34.43956638       5.50722323       6.67236099  T
O       30.30357111      -0.02626795       7.25212868  T
O       34.67055953       3.63299091       6.65427400  T
O       29.68198412       3.60912789       6.65320501  T
Cu      34.50700009       1.73566310       6.62987327  T
Cu      29.83010760       1.73096530       6.64390198  T
O       33.92108865       7.26731486       7.22157004  T
Cu      32.11193148       7.13950978       7.32877900  T
Cu      30.88642502       7.28000021       5.14773750  F
Cu      33.46029377       7.28000021       5.14773750  F
Cu      30.88642502       7.28000021       2.57386875  F
Cu      36.03416252       7.28000021       5.14773750  F
Cu      33.46029377       7.28000021       2.57386875  F
Cu      30.88642502       7.28000021       0.00000000  F
Cu      37.32109690       5.46000016       3.86080313  F
Cu      38.60803127       7.28000021       5.14773750  F
Cu      36.03416252       7.28000021       2.57386875  F
Cu      37.32109690       9.10000026       3.86080313  F
Cu      33.46029377       7.28000021       0.00000000  F
Cu      39.89496517       5.46000016       3.86080313  F
Cu      41.18190002       7.28000021       5.14773750  F
Cu      37.32109690       5.46000016       1.28693438  F
Cu      38.60803127       7.28000021       2.57386875  F
Cu      39.89496517       9.10000026       3.86080313  F
Cu      36.03416252       7.28000021       0.00000000  F
Cu      37.32109690       9.10000026       1.28693438  F
Cu      42.46883392       5.46000016       3.86080313  F
Cu      43.75576878       7.28000021       5.14773750  F
Cu      39.89496517       5.46000016       1.28693438  F
Cu      41.18190002       7.28000021       2.57386875  F
Cu      42.46883392       9.10000026       3.86080313  F
Cu      38.60803127       7.28000021       0.00000000  F
Cu      39.89496517       9.10000026       1.28693438  F
Cu      42.46883392       5.46000016       1.28693438  F
Cu      43.75576878       7.28000021       2.57386875  F
Cu      41.18190002       7.28000021       0.00000000  F
Cu      42.46883392       9.10000026       1.28693438  F
Cu      43.75576878       7.28000021       0.00000000  F
Cu      37.55318440       9.14096217       6.63090813  T
Cu      42.16117264       9.14722333       6.67236099  T
O       38.02517736       3.61373216       7.25212868  T
O       42.39216579       7.27299102       6.65427400  T
O       37.40359038       7.24912800       6.65320501  T
Cu      42.22860634       5.37566320       6.62987327  T
Cu      37.55171386       5.37096541       6.64390198  T
O       41.64269490      10.90731497       7.22157004  T
Cu      39.83353774      10.77950989       7.32877900  T
Cu      38.60803127      10.92000031       5.14773750  F
Cu      41.18190002      10.92000031       5.14773750  F
Cu      38.60803127      10.92000031       2.57386875  F
Cu      43.75576878      10.92000031       5.14773750  F
Cu      41.18190002      10.92000031       2.57386875  F
Cu      38.60803127      10.92000031       0.00000000  F
Cu      45.04270315       9.10000026       3.86080313  F
Cu      46.32963753      10.92000031       5.14773750  F
Cu      43.75576878      10.92000031       2.57386875  F
Cu      45.04270315      12.74000037       3.86080313  F
Cu      41.18190002      10.92000031       0.00000000  F
Cu      47.61657143       9.10000026       3.86080313  F
Cu      48.90350628      10.92000031       5.14773750  F
Cu      45.04270315       9.10000026       1.28693438  F
Cu      46.32963753      10.92000031       2.57386875  F
Cu      47.61657143      12.74000037       3.86080313  F
Cu      43.75576878      10.92000031       0.00000000  F
Cu      45.04270315      12.74000037       1.28693438  F
Cu      50.19044018       9.10000026       3.86080313  F
Cu      51.47737503      10.92000031       5.14773750  F
Cu      47.61657143       9.10000026       1.28693438  F
Cu      48.90350628      10.92000031       2.57386875  F
Cu      50.19044018      12.74000037       3.86080313  F
Cu      46.32963753      10.92000031       0.00000000  F
Cu      47.61657143      12.74000037       1.28693438  F
Cu      50.19044018       9.10000026       1.28693438  F
Cu      51.47737503      10.92000031       2.57386875  F
Cu      48.90350628      10.92000031       0.00000000  F
Cu      50.19044018      12.74000037       1.28693438  F
Cu      51.47737503      10.92000031       0.00000000  F
Cu      45.27479066      12.78096228       6.63090813  T
Cu      49.88277889      12.78722344       6.67236099  T
O       45.74678362       7.25373226       7.25212868  T
O       50.11377204      10.91299112       6.65427400  T
O       45.12519663      10.88912810       6.65320501  T
Cu      49.95021260       9.01566331       6.62987327  T
Cu      45.27332011       9.01096551       6.64390198  T
O       49.36430116      14.54731507       7.22157004  T
Cu      47.55514399      14.41950999       7.32877900  T
Cu      46.32963753      14.56000042       5.14773750  F
Cu      48.90350628      14.56000042       5.14773750  F
Cu      46.32963753      14.56000042       2.57386875  F
Cu      51.47737503      14.56000042       5.14773750  F
Cu      48.90350628      14.56000042       2.57386875  F
Cu      46.32963753      14.56000042       0.00000000  F
Cu      52.76430941      12.74000037       3.86080313  F
Cu      54.05124378      14.56000042       5.14773750  F
Cu      51.47737503      14.56000042       2.57386875  F
Cu      52.76430941      16.38000047       3.86080313  F
Cu      48.90350628      14.56000042       0.00000000  F
Cu      55.33817768      12.74000037       3.86080313  F
Cu      56.62511253      14.56000042       5.14773750  F
Cu      52.76430941      12.74000037       1.28693438  F
Cu      54.05124378      14.56000042       2.57386875  F
Cu      55.33817768      16.38000047       3.86080313  F
Cu      51.47737503      14.56000042       0.00000000  F
Cu      52.76430941      16.38000047       1.28693438  F
Cu      57.91204643      12.74000037       3.86080313  F
Cu      59.19898129      14.56000042       5.14773750  F
Cu      55.33817768      12.74000037       1.28693438  F
Cu      56.62511253      14.56000042       2.57386875  F
Cu      57.91204643      16.38000047       3.86080313  F
Cu      54.05124378      14.56000042       0.00000000  F
Cu      55.33817768      16.38000047       1.28693438  F
Cu      57.91204643      12.74000037       1.28693438  F
Cu      59.19898129      14.56000042       2.57386875  F
Cu      56.62511253      14.56000042       0.00000000  F
Cu      57.91204643      16.38000047       1.28693438  F
Cu      59.19898129      14.56000042       0.00000000  F
Cu      52.99639691      16.42096238       6.63090813  T
Cu      57.60438515      16.42722354       6.67236099  T
O       53.46838987      10.89373237       7.25212868  T
O       57.83537830      14.55299123       6.65427400  T
O       52.84680289      14.52912821       6.65320501  T
Cu      57.67181885      12.65566341       6.62987327  T
Cu      52.99492636      12.65096561       6.64390198  T
O       57.08590741      18.18731518       7.22157004  T
Cu      55.27675025      18.05951010       7.32877900  T
Cu      54.05124378      18.20000052       5.14773750  F
Cu      56.62511253      18.20000052       5.14773750  F
Cu      54.05124378      18.20000052       2.57386875  F
Cu      59.19898129      18.20000052       5.14773750  F
Cu      56.62511253      18.20000052       2.57386875  F
Cu      54.05124378      18.20000052       0.00000000  F
Cu      60.48591566      16.38000047       3.86080313  F
Cu      61.77285004      18.20000052       5.14773750  F
Cu      59.19898129      18.20000052       2.57386875  F
Cu      60.48591566      20.02000058       3.86080313  F
Cu      56.62511253      18.20000052       0.00000000  F
Cu      63.05978394      16.38000047       3.86080313  F
Cu      64.34671879      18.20000052       5.14773750  F
Cu      60.48591566      16.38000047       1.28693438  F
Cu      61.77285004      18.20000052       2.57386875  F
Cu      63.05978394      20.02000058       3.86080313  F
Cu      59.19898129      18.20000052       0.00000000  F
Cu      60.48591566      20.02000058       1.28693438  F
Cu      65.63365269      16.38000047       3.86080313  F
Cu      66.92058754      18.20000052       5.14773750  F
Cu      63.05978394      16.38000047       1.28693438  F
Cu      64.34671879      18.20000052       2.57386875  F
Cu      65.63365269      20.02000058       3.86080313  F
Cu      61.77285004      18.20000052       0.00000000  F
Cu      63.05978394      20.02000058       1.28693438  F
Cu      65.63365269      16.38000047       1.28693438  F
Cu      66.92058754      18.20000052       2.57386875  F
Cu      64.34671879      18.20000052       0.00000000  F
Cu      65.63365269      20.02000058       1.28693438  F
Cu      66.92058754      18.20000052       0.00000000  F
Cu      60.71800317      20.06096249       6.63090813  T
Cu      65.32599140      20.06722365       6.67236099  T
O       61.18999613      14.53373247       7.25212868  T
O       65.55698455      18.19299133       6.65427400  T
O       60.56840914      18.16912831       6.65320501  T
Cu      65.39342511      16.29566352       6.62987327  T
Cu      60.71653262      16.29096572       6.64390198  T
O       64.80751367      21.82731528       7.22157004  T
Cu      62.99835650      21.69951020       7.32877900  T
Cu      61.77285004      21.84000063       5.14773750  F
Cu      64.34671879      21.84000063       5.14773750  F
Cu      61.77285004      21.84000063       2.57386875  F
Cu      66.92058754      21.84000063       5.14773750  F
Cu      64.34671879      21.84000063       2.57386875  F
Cu      61.77285004      21.84000063       0.00000000  F
Cu      68.20752192      20.02000058       3.86080313  F
Cu      69.49445629      21.84000063       5.14773750  F
Cu      66.92058754      21.84000063       2.57386875  F
Cu      68.20752192      23.66000068       3.86080313  F
Cu      64.34671879      21.84000063       0.00000000  F
Cu      70.78139019      20.02000058       3.86080313  F
Cu      72.06832504      21.84000063       5.14773750  F
Cu      68.20752192      20.02000058       1.28693438  F
Cu      69.49445629      21.84000063       2.57386875  F
Cu      70.78139019      23.66000068       3.86080313  F
Cu      66.92058754      21.84000063       0.00000000  F
Cu      68.20752192      23.66000068       1.28693438  F
Cu      73.35525894      20.02000058       3.86080313  F
Cu      74.64219379      21.84000063       5.14773750  F
Cu      70.78139019      20.02000058       1.28693438  F
Cu      72.06832504      21.84000063       2.57386875  F
Cu      73.35525894      23.66000068       3.86080313  F
Cu      69.49445629      21.84000063       0.00000000  F
Cu      70.78139019      23.66000068       1.28693438  F
Cu      73.35525894      20.02000058       1.28693438  F
Cu      74.64219379      21.84000063       2.57386875  F
Cu      72.06832504      21.84000063       0.00000000  F
Cu      73.35525894      23.66000068       1.28693438  F
Cu      74.64219379      21.84000063       0.00000000  F
Cu      68.43960942      23.70096259       6.63090813  T
Cu      73.04759766      23.70722375       6.67236099  T
O       68.91160238      18.17373258       7.25212868  T
O       73.27859080      21.83299144       6.65427400  T
O       68.29001540      21.80912842       6.65320501  T
Cu      73.11503136      19.93566362       6.62987327  T
Cu      68.43813887      19.93096582       6.64390198  T
O       72.52911992      25.46731539       7.22157004  T
Cu      70.71996276      25.33951031       7.32877900  T
Cu      69.49445629      25.48000073       5.14773750  F
Cu      72.06832504      25.48000073       5.14773750  F
Cu      69.49445629      25.48000073       2.57386875  F
Cu      74.64219379      25.48000073       5.14773750  F
Cu      72.06832504      25.48000073       2.57386875  F
Cu      69.49445629      25.48000073       0.00000000  F
Cu      75.92912817      23.66000068       3.86080313  F
Cu      77.21606255      25.48000073       5.14773750  F
Cu      74.64219379      25.48000073       2.57386875  F
Cu      75.92912817      27.30000079       3.86080313  F
Cu      72.06832504      25.48000073       0.00000000  F
Cu      78.50299644      23.66000068       3.86080313  F
Cu      79.78993130      25.48000073       5.14773750  F
Cu      75.92912817      23.66000068       1.28693438  F
Cu      77.21606255      25.48000073       2.57386875  F
Cu      78.50299644      27.30000079       3.86080313  F
Cu      74.64219379      25.48000073       0.00000000  F
Cu      75.92912817      27.30000079       1.28693438  F
Cu      81.07686520      23.66000068       3.86080313  F
Cu      82.36380005      25.48000073       5.14773750  F
Cu      78.50299644      23.66000068       1.28693438  F
Cu      79.78993130      25.48000073       2.57386875  F
Cu      81.07686520      27.30000079       3.86080313  F
Cu      77.21606255      25.48000073       0.00000000  F
Cu      78.50299644      27.30000079       1.28693438  F
Cu      81.07686520      23.66000068       1.28693438  F
Cu      82.36380005      25.48000073       2.57386875  F
Cu      79.78993130      25.48000073       0.00000000  F
Cu      81.07686520      27.30000079       1.28693438  F
Cu      82.36380005      25.48000073       0.00000000  F
Cu      76.16121568      27.34096270       6.63090813  T
Cu      80.76920391      27.34722386       6.67236099  T
O       76.63320863      21.81373268       7.25212868  T
O       81.00019706      25.47299154       6.65427400  T
O       76.01162165      25.44912852       6.65320501  T
Cu      80.83663762      23.57566373       6.62987327  T
Cu      76.15974513      23.57096593       6.64390198  T
O       80.25072617      29.10731549       7.22157004  T
Cu      78.44156901      28.97951041       7.32877900  T
Cu      77.21606255      29.12000084       5.14773750  F
Cu      79.78993130      29.12000084       5.14773750  F
Cu      77.21606255      29.12000084       2.57386875  F
Cu      82.36380005      29.12000084       5.14773750  F
Cu      79.78993130      29.12000084       2.57386875  F
Cu      77.21606255      29.12000084       0.00000000  F
Cu      83.65073442      27.30000079       3.86080313  F
Cu      84.93766880      29.12000084       5.14773750  F
Cu      82.36380005      29.12000084       2.57386875  F
Cu      83.65073442      30.94000089       3.86080313  F
Cu      79.78993130      29.12000084       0.00000000  F
Cu      86.22460270      27.30000079       3.86080313  F
Cu      87.51153755      29.12000084       5.14773750  F
Cu      83.65073442      27.30000079       1.28693438  F
Cu      84.93766880      29.12000084       2.57386875  F
Cu      86.22460270      30.94000089       3.86080313  F
Cu      82.36380005      29.12000084       0.00000000  F
Cu      83.65073442      30.94000089       1.28693438  F
Cu      88.79847145      27.30000079       3.86080313  F
Cu      90.08540630      29.12000084       5.14773750  F
Cu      86.22460270      27.30000079       1.28693438  F
Cu      87.51153755      29.12000084       2.57386875  F
Cu      88.79847145      30.94000089       3.86080313  F
Cu      84.93766880      29.12000084       0.00000000  F
Cu      86.22460270      30.94000089       1.28693438  F
Cu      88.79847145      27.30000079       1.28693438  F
Cu      90.08540630      29.12000084       2.57386875  F
Cu      87.51153755      29.12000084       0.00000000  F
Cu      88.79847145      30.94000089       1.28693438  F
Cu      90.08540630      29.12000084       0.00000000  F
Cu      83.88282193      30.98096280       6.63090813  T
Cu      88.49081017      30.98722396       6.67236099  T
O       84.35481489      25.45373279       7.25212868  T
O       88.72180331      29.11299165       6.65427400  T
O       83.73322791      29.08912863       6.65320501  T
Cu      88.55824387      27.21566383       6.62987327  T
Cu      83.88135138      27.21096603       6.64390198  T
O       87.97233243      32.74731560       7.22157004  T
Cu      86.16317527      32.61951052       7.32877900  T
Cu      15.44321251      -7.28000021       5.14773750  F
Cu      18.01708126      -7.28000021       5.14773750  F
Cu      15.44321251      -7.28000021       2.57386875  F
Cu      20.59095001      -7.28000021       5.14773750  F
Cu      18.01708126      -7.28000021       2.57386875  F
Cu      15.44321251      -7.28000021       0.00000000  F
Cu      21.87788439      -9.10000026       3.86080313  F
Cu      23.16481876      -7.28000021       5.14773750  F
Cu      20.59095001      -7.28000021       2.57386875  F
Cu      21.87788439      -5.46000016       3.86080313  F
Cu      18.01708126      -7.28000021       0.00000000  F
Cu      24.45175266      -9.10000026       3.86080313  F
Cu      25.73868752      -7.28000021       5.14773750  F
Cu      21.87788439      -9.10000026       1.28693438  F
Cu      23.16481876      -7.28000021       2.57386875  F
Cu      24.45175266      -5.46000016       3.86080313  F
Cu      20.59095001      -7.28000021       0.00000000  F
Cu      21.87788439      -5.46000016       1.28693438  F
Cu      27.02562141      -9.10000026       3.86080313  F
Cu      28.31255627      -7.28000021       5.14773750  F
Cu      24.45175266      -9.10000026       1.28693438  F
Cu      25.73868752      -7.28000021       2.57386875  F
Cu      27.02562141      -5.46000016       3.86080313  F
Cu      23.16481876      -7.28000021       0.00000000  F
Cu      24.45175266      -5.46000016       1.28693438  F
Cu      27.02562141      -9.10000026       1.28693438  F
Cu      28.31255627      -7.28000021       2.57386875  F
Cu      25.73868752      -7.28000021       0.00000000  F
Cu      27.02562141      -5.46000016       1.28693438  F
Cu      28.31255627      -7.28000021       0.00000000  F
Cu      22.10997189      -5.41903825       6.63090813  T
Cu      26.71796013      -5.41277709       6.67236099  T
O       22.58196485     -10.94626826       7.25212868  T
O       26.94895328      -7.28700940       6.65427400  T
O       21.96037787      -7.31087242       6.65320501  T
Cu      26.78539383      -9.18433722       6.62987327  T
Cu      22.10850135      -9.18903501       6.64390198  T
O       26.19948239      -3.65268545       7.22157004  T
Cu      24.39032523      -3.78049053       7.32877900  T
Cu      23.16481876      -3.64000010       5.14773750  F
Cu      25.73868752      -3.64000010       5.14773750  F
Cu      23.16481876      -3.64000010       2.57386875  F
Cu      28.31255627      -3.64000010       5.14773750  F
Cu      25.73868752      -3.64000010       2.57386875  F
Cu      23.16481876      -3.64000010       0.00000000  F
Cu      29.59949064      -5.46000016       3.86080313  F
Cu      30.88642502      -3.64000010       5.14773750  F
Cu      28.31255627      -3.64000010       2.57386875  F
Cu      29.59949064      -1.82000005       3.86080313  F
Cu      25.73868752      -3.64000010       0.00000000  F
Cu      32.17335892      -5.46000016       3.86080313  F
Cu      33.46029377      -3.64000010       5.14773750  F
Cu      29.59949064      -5.46000016       1.28693438  F
Cu      30.88642502      -3.64000010       2.57386875  F
Cu      32.17335892      -1.82000005       3.86080313  F
Cu      28.31255627      -3.64000010       0.00000000  F
Cu      29.59949064      -1.82000005       1.28693438  F
Cu      34.74722767      -5.46000016       3.86080313  F
Cu      36.03416252      -3.64000010       5.14773750  F
Cu      32.17335892      -5.46000016       1.28693438  F
Cu      33.46029377      -3.64000010       2.57386875  F
Cu      34.74722767      -1.82000005       3.86080313  F
Cu      30.88642502      -3.64000010       0.00000000  F
Cu      32.17335892      -1.82000005       1.28693438  F
Cu      34.74722767      -5.46000016       1.28693438  F
Cu      36.03416252      -3.64000010       2.57386875  F
Cu      33.46029377      -3.64000010       0.00000000  F
Cu      34.74722767      -1.82000005       1.28693438  F
Cu      36.03416252      -3.64000010       0.00000000  F
Cu      29.83157815      -1.77903814       6.63090813  T
Cu      34.43956638      -1.77277698       6.67236099  T
O       30.30357111      -7.30626816       7.25212868  T
O       34.67055953      -3.64700930       6.65427400  T
O       29.68198412      -3.67087232       6.65320501  T
Cu      34.50700009      -5.54433711       6.62987327  T
Cu      29.83010760      -5.54903491       6.64390198  T
O       33.92108865      -0.01268535       7.22157004  T
Cu      32.11193148      -0.14049043       7.32877900  T
Cu      30.88642502       0.00000000       5.14773750  F
Cu      33.46029377       0.00000000       5.14773750  F
Cu      30.88642502       0.00000000       2.57386875  F
Cu      36.03416252       0.00000000       5.14773750  F
Cu      33.46029377       0.00000000       2.57386875  F
Cu      30.88642502       0.00000000       0.00000000  F
Cu      37.32109690      -1.82000005       3.86080313  F
Cu      38.60803127       0.00000000       5.14773750  F
Cu      36.03416252       0.00000000       2.57386875  F
Cu      37.32109690       1.82000005       3.86080313  F
Cu      33.46029377       0.00000000       0.00000000  F
Cu      39.89496517      -1.82000005       3.86080313  F
Cu      41.18190002       0.00000000       5.14773750  F
Cu      37.32109690      -1.82000005       1.28693438  F
Cu      38.60803127       0.00000000       2.57386875  F
Cu      39.89496517       1.82000005       3.86080313  F
Cu      36.03416252       0.00000000       0.00000000  F
Cu      37.32109690       1.82000005       1.28693438  F
Cu      42.46883392      -1.82000005       3.86080313  F
Cu      43.75576878       0.00000000       5.14773750  F
Cu      39.89496517      -1.82000005       1.28693438  F
Cu      41.18190002       0.00000000       2.57386875  F
Cu      42.46883392       1.82000005       3.86080313  F
Cu      38.60803127       0.00000000       0.00000000  F
Cu      39.89496517       1.82000005       1.28693438  F
Cu      42.46883392      -1.82000005       1.28693438  F
Cu      43.75576878       0.00000000       2.57386875  F
Cu      41.18190002       0.00000000       0.00000000  F
Cu      42.46883392       1.82000005       1.28693438  F
Cu      43.75576878       0.00000000       0.00000000  F
Cu      37.55318440       1.86096196       6.63090813  T
Cu      42.16117264       1.86722312       6.67236099  T
O       38.02517736      -3.66626805       7.25212868  T
O       42.39216579      -0.00700919       6.65427400  T
O       37.40359038      -0.03087221       6.65320501  T
Cu      42.22860634      -1.90433701       6.62987327  T
Cu      37.55171386      -1.90903480       6.64390198  T
O       41.64269490       3.62731476       7.22157004  T
Cu      39.83353774       3.49950968       7.32877900  T
Cu      38.60803127       3.64000010       5.14773750  F
Cu      41.18190002       3.64000010       5.14773750  F
Cu      38.60803127       3.64000010       2.57386875  F
Cu      43.75576878       3.64000010       5.14773750  F
Cu      41.18190002       3.64000010       2.57386875  F
Cu      38.60803127       3.64000010       0.00000000  F
Cu      45.04270315       1.82000005       3.86080313  F
Cu      46.32963753       3.64000010       5.14773750  F
Cu      43.75576878       3.64000010       2.57386875  F
Cu      45.04270315       5.46000016       3.86080313  F
Cu      41.18190002       3.64000010       0.00000000  F
Cu      47.61657143       1.82000005       3.86080313  F
Cu      48.90350628       3.64000010       5.14773750  F
Cu      45.04270315       1.82000005       1.28693438  F
Cu      46.32963753       3.64000010       2.57386875  F
Cu      47.61657143       5.46000016       3.86080313  F
Cu      43.75576878       3.64000010       0.00000000  F
Cu      45.04270315       5.46000016       1.28693438  F
Cu      50.19044018       1.82000005       3.86080313  F
Cu      51.47737503       3.64000010       5.14773750  F
Cu      47.61657143       1.82000005       1.28693438  F
Cu      48.90350628       3.64000010       2.57386875  F
Cu      50.19044018       5.46000016       3.86080313  F
Cu      46.32963753       3.64000010       0.00000000  F
Cu      47.61657143       5.46000016       1.28693438  F
Cu      50.19044018       1.82000005       1.28693438  F
Cu      51.47737503       3.64000010       2.57386875  F
Cu      48.90350628       3.64000010       0.00000000  F
Cu      50.19044018       5.46000016       1.28693438  F
Cu      51.47737503       3.64000010       0.00000000  F
Cu      45.27479066       5.50096207       6.63090813  T
Cu      49.88277889       5.50722323       6.67236099  T
O       45.74678362      -0.02626795       7.25212868  T
O       50.11377204       3.63299091       6.65427400  T
O       45.12519663       3.60912789       6.65320501  T
Cu      49.95021260       1.73566310       6.62987327  T
Cu      45.27332011       1.73096530       6.64390198  T
O       49.36430116       7.26731486       7.22157004  T
Cu      47.55514399       7.13950978       7.32877900  T
Cu      46.32963753       7.28000021       5.14773750  F
Cu      48.90350628       7.28000021       5.14773750  F
Cu      46.32963753       7.28000021       2.57386875  F
Cu      51.47737503       7.28000021       5.14773750  F
Cu      48.90350628       7.28000021       2.57386875  F
Cu      46.32963753       7.28000021       0.00000000  F
Cu      52.76430941       5.46000016       3.86080313  F
Cu      54.05124378       7.28000021       5.14773750  F
Cu      51.47737503       7.28000021       2.57386875  F
Cu      52.76430941       9.10000026       3.86080313  F
Cu      48.90350628       7.28000021       0.00000000  F
Cu      55.33817768       5.46000016       3.86080313  F
Cu      56.62511253       7.28000021       5.14773750  F
Cu      52.76430941       5.46000016       1.28693438  F
Cu      54.05124378       7.28000021       2.57386875  F
Cu      55.33817768       9.10000026       3.86080313  F
Cu      51.47737503       7.28000021       0.00000000  F
Cu      52.76430941       9.10000026       1.28693438  F
Cu      57.91204643       5.46000016       3.86080313  F
Cu      59.19898129       7.28000021       5.14773750  F
Cu      55.33817768       5.46000016       1.28693438  F
Cu      56.62511253       7.28000021       2.57386875  F
Cu      57.91204643       9.10000026       3.86080313  F
Cu      54.05124378       7.28000021       0.00000000  F
Cu      55.33817768       9.10000026       1.28693438  F
Cu      57.91204643       5.46000016       1.28693438  F
Cu      59.19898129       7.28000021       2.57386875  F
Cu      56.62511253       7.28000021       0.00000000  F
Cu      57.91204643       9.10000026       1.28693438  F
Cu      59.19898129       7.28000021       0.00000000  F
Cu      52.99639691       9.14096217       6.63090813  T
Cu      57.60438515       9.14722333       6.67236099  T
O       53.46838987       3.61373216       7.25212868  T
O       57.83537830       7.27299102       6.65427400  T
O       52.84680289       7.24912800       6.65320501  T
Cu      57.67181885       5.37566320       6.62987327  T
Cu      52.99492636       5.37096541       6.64390198  T
O       57.08590741      10.90731497       7.22157004  T
Cu      55.27675025      10.77950989       7.32877900  T
Cu      54.05124378      10.92000031       5.14773750  F
Cu      56.62511253      10.92000031       5.14773750  F
Cu      54.05124378      10.92000031       2.57386875  F
Cu      59.19898129      10.92000031       5.14773750  F
Cu      56.62511253      10.92000031       2.57386875  F
Cu      54.05124378      10.92000031       0.00000000  F
Cu      60.48591566       9.10000026       3.86080313  F
Cu      61.77285004      10.92000031       5.14773750  F
Cu      59.19898129      10.92000031       2.57386875  F
Cu      60.48591566      12.74000037       3.86080313  F
Cu      56.62511253      10.92000031       0.00000000  F
Cu      63.05978394       9.10000026       3.86080313  F
Cu      64.34671879      10.92000031       5.14773750  F
Cu      60.48591566       9.10000026       1.28693438  F
Cu      61.77285004      10.92000031       2.57386875  F
Cu      63.05978394      12.74000037       3.86080313  F
Cu      59.19898129      10.92000031       0.00000000  F
Cu      60.48591566      12.74000037       1.28693438  F
Cu      65.63365269       9.10000026       3.86080313  F
Cu      66.92058754      10.92000031       5.14773750  F
Cu      63.05978394       9.10000026       1.28693438  F
Cu      64.34671879      10.92000031       2.57386875  F
Cu      65.63365269      12.74000037       3.86080313  F
Cu      61.77285004      10.92000031       0.00000000  F
Cu      63.05978394      12.74000037       1.28693438  F
Cu      65.63365269       9.10000026       1.28693438  F
Cu      66.92058754      10.92000031       2.57386875  F
Cu      64.34671879      10.92000031       0.00000000  F
Cu      65.63365269      12.74000037       1.28693438  F
Cu      66.92058754      10.92000031       0.00000000  F
Cu      60.71800317      12.78096228       6.63090813  T
Cu      65.32599140      12.78722344       6.67236099  T
O       61.18999613       7.25373226       7.25212868  T
O       65.55698455      10.91299112       6.65427400  T
O       60.56840914      10.88912810       6.65320501  T
Cu      65.39342511       9.01566331       6.62987327  T
Cu      60.71653262       9.01096551       6.64390198  T
O       64.80751367      14.54731507       7.22157004  T
Cu      62.99835650      14.41950999       7.32877900  T
Cu      61.77285004      14.56000042       5.14773750  F
Cu      64.34671879      14.56000042       5.14773750  F
Cu      61.77285004      14.56000042       2.57386875  F
Cu      66.92058754      14.56000042       5.14773750  F
Cu      64.34671879      14.56000042       2.57386875  F
Cu      61.77285004      14.56000042       0.00000000  F
Cu      68.20752192      12.74000037       3.86080313  F
Cu      69.49445629      14.56000042       5.14773750  F
Cu      66.92058754      14.56000042       2.57386875  F
Cu      68.20752192      16.38000047       3.86080313  F
Cu      64.34671879      14.56000042       0.00000000  F
Cu      70.78139019      12.74000037       3.86080313  F
Cu      72.06832504      14.56000042       5.14773750  F
Cu      68.20752192      12.74000037       1.28693438  F
Cu      69.49445629      14.56000042       2.57386875  F
Cu      70.78139019      16.38000047       3.86080313  F
Cu      66.92058754      14.56000042       0.00000000  F
Cu      68.20752192      16.38000047       1.28693438  F
Cu      73.35525894      12.74000037       3.86080313  F
Cu      74.64219379      14.56000042       5.14773750  F
Cu      70.78139019      12.74000037       1.28693438  F
Cu      72.06832504      14.56000042       2.57386875  F
Cu      73.35525894      16.38000047       3.86080313  F
Cu      69.49445629      14.56000042       0.00000000  F
Cu      70.78139019      16.38000047       1.28693438  F
Cu      73.35525894      12.74000037       1.28693438  F
Cu      74.64219379      14.56000042       2.57386875  F
Cu      72.06832504      14.56000042       0.00000000  F
Cu      73.35525894      16.38000047       1.28693438  F
Cu      74.64219379      14.56000042       0.00000000  F
Cu      68.43960942      16.42096238       6.63090813  T
Cu      73.04759766      16.42722354       6.67236099  T
O       68.91160238      10.89373237       7.25212868  T
O       73.27859080      14.55299123       6.65427400  T
O       68.29001540      14.52912821       6.65320501  T
Cu      73.11503136      12.65566341       6.62987327  T
Cu      68.43813887      12.65096561       6.64390198  T
O       72.52911992      18.18731518       7.22157004  T
Cu      70.71996276      18.05951010       7.32877900  T
Cu      69.49445629      18.20000052       5.14773750  F
Cu      72.06832504      18.20000052       5.14773750  F
Cu      69.49445629      18.20000052       2.57386875  F
Cu      74.64219379      18.20000052       5.14773750  F
Cu      72.06832504      18.20000052       2.57386875  F
Cu      69.49445629      18.20000052       0.00000000  F
Cu      75.92912817      16.38000047       3.86080313  F
Cu      77.21606255      18.20000052       5.14773750  F
Cu      74.64219379      18.20000052       2.57386875  F
Cu      75.92912817      20.02000058       3.86080313  F
Cu      72.06832504      18.20000052       0.00000000  F
Cu      78.50299644      16.38000047       3.86080313  F
Cu      79.78993130      18.20000052       5.14773750  F
Cu      75.92912817      16.38000047       1.28693438  F
Cu      77.21606255      18.20000052       2.57386875  F
Cu      78.50299644      20.02000058       3.86080313  F
Cu      74.64219379      18.20000052       0.00000000  F
Cu      75.92912817      20.02000058       1.28693438  F
Cu      81.07686520      16.38000047       3.86080313  F
Cu      82.36380005      18.20000052       5.14773750  F
Cu      78.50299644      16.38000047       1.28693438  F
Cu      79.78993130      18.20000052       2.57386875  F
Cu      81.07686520      20.02000058       3.86080313  F
Cu      77.21606255      18.20000052       0.00000000  F
Cu      78.50299644      20.02000058       1.28693438  F
Cu      81.07686520      16.38000047       1.28693438  F
Cu      82.36380005      18.20000052       2.57386875  F
Cu      79.78993130      18.20000052       0.00000000  F
Cu      81.07686520      20.02000058       1.28693438  F
Cu      82.36380005      18.20000052       0.00000000  F
Cu      76.16121568      20.06096249       6.63090813  T
Cu      80.76920391      20.06722365       6.67236099  T
O       76.63320863      14.53373247       7.25212868  T
O       81.00019706      18.19299133       6.65427400  T
O       76.01162165      18.16912831       6.65320501  T
Cu      80.83663762      16.29566352       6.62987327  T
Cu      76.15974513      16.29096572       6.64390198  T
O       80.25072617      21.82731528       7.22157004  T
Cu      78.44156901      21.69951020       7.32877900  T
Cu      77.21606255      21.84000063       5.14773750  F
Cu      79.78993130      21.84000063       5.14773750  F
Cu      77.21606255      21.84000063       2.57386875  F
Cu      82.36380005      21.84000063       5.14773750  F
Cu      79.78993130      21.84000063       2.57386875  F
Cu      77.21606255      21.84000063       0.00000000  F
Cu      83.65073442      20.02000058       3.86080313  F
Cu      84.93766880      21.84000063       5.14773750  F
Cu      82.36380005      21.84000063       2.57386875  F
Cu      83.65073442      23.66000068       3.86080313  F
Cu      79.78993130      21.84000063       0.00000000  F
Cu      86.22460270      20.02000058       3.86080313  F
Cu      87.51153755      21.84000063       5.14773750  F
Cu      83.65073442      20.02000058       1.28693438  F
Cu      84.93766880      21.84000063       2.57386875  F
Cu      86.22460270      23.66000068       3.86080313  F
Cu      82.36380005      21.84000063       0.00000000  F
Cu      83.65073442      23.66000068       1.28693438  F
Cu      88.79847145      20.02000058       3.86080313  F
Cu      90.08540630      21.84000063       5.14773750  F
Cu      86.22460270      20.02000058       1.28693438  F
Cu      87.51153755      21.84000063       2.57386875  F
Cu      88.79847145      23.66000068       3.86080313  F
Cu      84.93766880      21.84000063       0.00000000  F
Cu      86.22460270      23.66000068       1.28693438  F
Cu      88.79847145      20.02000058       1.28693438  F
Cu      90.08540630      21.84000063       2.57386875  F
Cu      87.51153755      21.84000063       0.00000000  F
Cu      88.79847145      23.66000068       1.28693438  F
Cu      90.08540630      21.84000063       0.00000000  F
Cu      83.88282193      23.70096259       6.63090813  T
Cu      88.49081017      23.70722375       6.67236099  T
O       84.35481489      18.17373258       7.25212868  T
O       88.72180331      21.83299144       6.65427400  T
O       83.73322791      21.80912842       6.65320501  T
Cu      88.55824387      19.93566362       6.62987327  T
Cu      83.88135138      19.93096582       6.64390198  T
O       87.97233243      25.46731539       7.22157004  T
Cu      86.16317527      25.33951031       7.32877900  T
Cu      84.93766880      25.48000073       5.14773750  F
Cu      87.51153755      25.48000073       5.14773750  F
Cu      84.93766880      25.48000073       2.57386875  F
Cu      90.08540630      25.48000073       5.14773750  F
Cu      87.51153755      25.48000073       2.57386875  F
Cu      84.93766880      25.48000073       0.00000000  F
Cu      91.37234068      23.66000068       3.86080313  F
Cu      92.65927505      25.48000073       5.14773750  F
Cu      90.08540630      25.48000073       2.57386875  F
Cu      91.37234068      27.30000079       3.86080313  F
Cu      87.51153755      25.48000073       0.00000000  F
Cu      93.94620895      23.66000068       3.86080313  F
Cu      95.23314381      25.48000073       5.14773750  F
Cu      91.37234068      23.66000068       1.28693438  F
Cu      92.65927505      25.48000073       2.57386875  F
Cu      93.94620895      27.30000079       3.86080313  F
Cu      90.08540630      25.48000073       0.00000000  F
Cu      91.37234068      27.30000079       1.28693438  F
Cu      96.52007771      23.66000068       3.86080313  F
Cu      97.80701256      25.48000073       5.14773750  F
Cu      93.94620895      23.66000068       1.28693438  F
Cu      95.23314381      25.48000073       2.57386875  F
Cu      96.52007771      27.30000079       3.86080313  F
Cu      92.65927505      25.48000073       0.00000000  F
Cu      93.94620895      27.30000079       1.28693438  F
Cu      96.52007771      23.66000068       1.28693438  F
Cu      97.80701256      25.48000073       2.57386875  F
Cu      95.23314381      25.48000073       0.00000000  F
Cu      96.52007771      27.30000079       1.28693438  F
Cu      97.80701256      25.48000073       0.00000000  F
Cu      91.60442818      27.34096270       6.63090813  T
Cu      96.21241642      27.34722386       6.67236099  T
O       92.07642114      21.81373268       7.25212868  T
O       96.44340957      25.47299154       6.65427400  T
O       91.45483416      25.44912852       6.65320501  T
Cu      96.27985013      23.57566373       6.62987327  T
Cu      91.60295764      23.57096593       6.64390198  T
O       95.69393868      29.10731549       7.22157004  T
Cu      93.88478152      28.97951041       7.32877900  T
Cu      23.16481876     -10.92000031       5.14773750  F
Cu      25.73868752     -10.92000031       5.14773750  F
Cu      23.16481876     -10.92000031       2.57386875  F
Cu      28.31255627     -10.92000031       5.14773750  F
Cu      25.73868752     -10.92000031       2.57386875  F
Cu      23.16481876     -10.92000031       0.00000000  F
Cu      29.59949064     -12.74000037       3.86080313  F
Cu      30.88642502     -10.92000031       5.14773750  F
Cu      28.31255627     -10.92000031       2.57386875  F
Cu      29.59949064      -9.10000026       3.86080313  F
Cu      25.73868752     -10.92000031       0.00000000  F
Cu      32.17335892     -12.74000037       3.86080313  F
Cu      33.46029377     -10.92000031       5.14773750  F
Cu      29.59949064     -12.74000037       1.28693438  F
Cu      30.88642502     -10.92000031       2.57386875  F
Cu      32.17335892      -9.10000026       3.86080313  F
Cu      28.31255627     -10.92000031       0.00000000  F
Cu      29.59949064      -9.10000026       1.28693438  F
Cu      34.74722767     -12.74000037       3.86080313  F
Cu      36.03416252     -10.92000031       5.14773750  F
Cu      32.17335892     -12.74000037       1.28693438  F
Cu      33.46029377     -10.92000031       2.57386875  F
Cu      34.74722767      -9.10000026       3.86080313  F
Cu      30.88642502     -10.92000031       0.00000000  F
Cu      32.17335892      -9.10000026       1.28693438  F
Cu      34.74722767     -12.74000037       1.28693438  F
Cu      36.03416252     -10.92000031       2.57386875  F
Cu      33.46029377     -10.92000031       0.00000000  F
Cu      34.74722767      -9.10000026       1.28693438  F
Cu      36.03416252     -10.92000031       0.00000000  F
Cu      29.83157815      -9.05903835       6.63090813  T
Cu      34.43956638      -9.05277719       6.67236099  T
O       30.30357111     -14.58626837       7.25212868  T
O       34.67055953     -10.92700951       6.65427400  T
O       29.68198412     -10.95087252       6.65320501  T
Cu      34.50700009     -12.82433732       6.62987327  T
Cu      29.83010760     -12.82903512       6.64390198  T
O       33.92108865      -7.29268556       7.22157004  T
Cu      32.11193148      -7.42049064       7.32877900  T
Cu      30.88642502      -7.28000021       5.14773750  F
Cu      33.46029377      -7.28000021       5.14773750  F
Cu      30.88642502      -7.28000021       2.57386875  F
Cu      36.03416252      -7.28000021       5.14773750  F
Cu      33.46029377      -7.28000021       2.57386875  F
Cu      30.88642502      -7.28000021       0.00000000  F
Cu      37.32109690      -9.10000026       3.86080313  F
Cu      38.60803127      -7.28000021       5.14773750  F
Cu      36.03416252      -7.28000021       2.57386875  F
Cu      37.32109690      -5.46000016       3.86080313  F
Cu      33.46029377      -7.28000021       0.00000000  F
Cu      39.89496517      -9.10000026       3.86080313  F
Cu      41.18190002      -7.28000021       5.14773750  F
Cu      37.32109690      -9.10000026       1.28693438  F
Cu      38.60803127      -7.28000021       2.57386875  F
Cu      39.89496517      -5.46000016       3.86080313  F
Cu      36.03416252      -7.28000021       0.00000000  F
Cu      37.32109690      -5.46000016       1.28693438  F
Cu      42.46883392      -9.10000026       3.86080313  F
Cu      43.75576878      -7.28000021       5.14773750  F
Cu      39.89496517      -9.10000026       1.28693438  F
Cu      41.18190002      -7.28000021       2.57386875  F
Cu      42.46883392      -5.46000016       3.86080313  F
Cu      38.60803127      -7.28000021       0.00000000  F
Cu      39.89496517      -5.46000016       1.28693438  F
Cu      42.46883392      -9.10000026       1.28693438  F
Cu      43.75576878      -7.28000021       2.57386875  F
Cu      41.18190002      -7.28000021       0.00000000  F
Cu      42.46883392      -5.46000016       1.28693438  F
Cu      43.75576878      -7.28000021       0.00000000  F
Cu      37.55318440      -5.41903825       6.63090813  T
Cu      42.16117264      -5.41277709       6.67236099  T
O       38.02517736     -10.94626826       7.25212868  T
O       42.39216579      -7.28700940       6.65427400  T
O       37.40359038      -7.31087242       6.65320501  T
Cu      42.22860634      -9.18433722       6.62987327  T
Cu      37.55171386      -9.18903501       6.64390198  T
O       41.64269490      -3.65268545       7.22157004  T
Cu      39.83353774      -3.78049053       7.32877900  T
Cu      38.60803127      -3.64000010       5.14773750  F
Cu      41.18190002      -3.64000010       5.14773750  F
Cu      38.60803127      -3.64000010       2.57386875  F
Cu      43.75576878      -3.64000010       5.14773750  F
Cu      41.18190002      -3.64000010       2.57386875  F
Cu      38.60803127      -3.64000010       0.00000000  F
Cu      45.04270315      -5.46000016       3.86080313  F
Cu      46.32963753      -3.64000010       5.14773750  F
Cu      43.75576878      -3.64000010       2.57386875  F
Cu      45.04270315      -1.82000005       3.86080313  F
Cu      41.18190002      -3.64000010       0.00000000  F
Cu      47.61657143      -5.46000016       3.86080313  F
Cu      48.90350628      -3.64000010       5.14773750  F
Cu      45.04270315      -5.46000016       1.28693438  F
Cu      46.32963753      -3.64000010       2.57386875  F
Cu      47.61657143      -1.82000005       3.86080313  F
Cu      43.75576878      -3.64000010       0.00000000  F
Cu      45.04270315      -1.82000005       1.28693438  F
Cu      50.19044018      -5.46000016       3.86080313  F
Cu      51.47737503      -3.64000010       5.14773750  F
Cu      47.61657143      -5.46000016       1.28693438  F
Cu      48.90350628      -3.64000010       2.57386875  F
Cu      50.19044018      -1.82000005       3.86080313  F
Cu      46.32963753      -3.64000010       0.00000000  F
Cu      47.61657143      -1.82000005       1.28693438  F
Cu      50.19044018      -5.46000016       1.28693438  F
Cu      51.47737503      -3.64000010       2.57386875  F
Cu      48.90350628      -3.64000010       0.00000000  F
Cu      50.19044018      -1.82000005       1.28693438  F
Cu      51.47737503      -3.64000010       0.00000000  F
Cu      45.27479066      -1.77903814       6.63090813  T
Cu      49.88277889      -1.77277698       6.67236099  T
O       45.74678362      -7.30626816       7.25212868  T
O       50.11377204      -3.64700930       6.65427400  T
O       45.12519663      -3.67087232       6.65320501  T
Cu      49.95021260      -5.54433711       6.62987327  T
Cu      45.27332011      -5.54903491       6.64390198  T
O       49.36430116      -0.01268535       7.22157004  T
Cu      47.55514399      -0.14049043       7.32877900  T
Cu      46.32963753       0.00000000       5.14773750  F
Cu      48.90350628       0.00000000       5.14773750  F
Cu      46.32963753       0.00000000       2.57386875  F
Cu      51.47737503       0.00000000       5.14773750  F
Cu      48.90350628       0.00000000       2.57386875  F
Cu      46.32963753       0.00000000       0.00000000  F
Cu      52.76430941      -1.82000005       3.86080313  F
Cu      54.05124378       0.00000000       5.14773750  F
Cu      51.47737503       0.00000000       2.57386875  F
Cu      52.76430941       1.82000005       3.86080313  F
Cu      48.90350628       0.00000000       0.00000000  F
Cu      55.33817768      -1.82000005       3.86080313  F
Cu      56.62511253       0.00000000       5.14773750  F
Cu      52.76430941      -1.82000005       1.28693438  F
Cu      54.05124378       0.00000000       2.57386875  F
Cu      55.33817768       1.82000005       3.86080313  F
Cu      51.47737503       0.00000000       0.00000000  F
Cu      52.76430941       1.82000005       1.28693438  F
Cu      57.91204643      -1.82000005       3.86080313  F
Cu      59.19898129       0.00000000       5.14773750  F
Cu      55.33817768      -1.82000005       1.28693438  F
Cu      56.62511253       0.00000000       2.57386875  F
Cu      57.91204643       1.82000005       3.86080313  F
Cu      54.05124378       0.00000000       0.00000000  F
Cu      55.33817768       1.82000005       1.28693438  F
Cu      57.91204643      -1.82000005       1.28693438  F
Cu      59.19898129       0.00000000       2.57386875  F
Cu      56.62511253       0.00000000       0.00000000  F
Cu      57.91204643       1.82000005       1.28693438  F
Cu      59.19898129       0.00000000       0.00000000  F
Cu      52.99639691       1.86096196       6.63090813  T
Cu      57.60438515       1.86722312       6.67236099  T
O       53.46838987      -3.66626805       7.25212868  T
O       57.83537830      -0.00700919       6.65427400  T
O       52.84680289      -0.03087221       6.65320501  T
Cu      57.67181885      -1.90433701       6.62987327  T
Cu      52.99492636      -1.90903480       6.64390198  T
O       57.08590741       3.62731476       7.22157004  T
Cu      55.27675025       3.49950968       7.32877900  T
Cu      54.05124378       3.64000010       5.14773750  F
Cu      56.62511253       3.64000010       5.14773750  F
Cu      54.05124378       3.64000010       2.57386875  F
Cu      59.19898129       3.64000010       5.14773750  F
Cu      56.62511253       3.64000010       2.57386875  F
Cu      54.05124378       3.64000010       0.00000000  F
Cu      60.48591566       1.82000005       3.86080313  F
Cu      61.77285004       3.64000010       5.14773750  F
Cu      59.19898129       3.64000010       2.57386875  F
Cu      60.48591566       5.46000016       3.86080313  F
Cu      56.62511253       3.64000010       0.00000000  F
Cu      63.05978394       1.82000005       3.86080313  F
Cu      64.34671879       3.64000010       5.14773750  F
Cu      60.48591566       1.82000005       1.28693438  F
Cu      61.77285004       3.64000010       2.57386875  F
Cu      63.05978394       5.46000016       3.86080313  F
Cu      59.19898129       3.64000010       0.00000000  F
Cu      60.48591566       5.46000016       1.28693438  F
Cu      65.63365269       1.82000005       3.86080313  F
Cu      66.92058754       3.64000010       5.14773750  F
Cu      63.05978394       1.82000005       1.28693438  F
Cu      64.34671879       3.64000010       2.57386875  F
Cu      65.63365269       5.46000016       3.86080313  F
Cu      61.77285004       3.64000010       0.00000000  F
Cu      63.05978394       5.46000016       1.28693438  F
Cu      65.63365269       1.82000005       1.28693438  F
Cu      66.92058754       3.64000010       2.57386875  F
Cu      64.34671879       3.64000010       0.00000000  F
Cu      65.63365269       5.46000016       1.28693438  F
Cu      66.92058754       3.64000010       0.00000000  F
Cu      60.71800317       5.50096207       6.63090813  T
Cu      65.32599140       5.50722323       6.67236099  T
O       61.18999613      -0.02626795       7.25212868  T
O       65.55698455       3.63299091       6.65427400  T
O       60.56840914       3.60912789       6.65320501  T
Cu      65.39342511       1.73566310       6.62987327  T
Cu      60.71653262       1.73096530       6.64390198  T
O       64.80751367       7.26731486       7.22157004  T
Cu      62.99835650       7.13950978       7.32877900  T
Cu      61.77285004       7.28000021       5.14773750  F
Cu      64.34671879       7.28000021       5.14773750  F
Cu      61.77285004       7.28000021       2.57386875  F
Cu      66.92058754       7.28000021       5.14773750  F
Cu      64.34671879       7.28000021       2.57386875  F
Cu      61.77285004       7.28000021       0.00000000  F
Cu      68.20752192       5.46000016       3.86080313  F
Cu      69.49445629       7.28000021       5.14773750  F
Cu      66.92058754       7.28000021       2.57386875  F
Cu      68.20752192       9.10000026       3.86080313  F
Cu      64.34671879       7.28000021       0.00000000  F
Cu      70.78139019       5.46000016       3.86080313  F
Cu      72.06832504       7.28000021       5.14773750  F
Cu      68.20752192       5.46000016       1.28693438  F
Cu      69.49445629       7.28000021       2.57386875  F
Cu      70.78139019       9.10000026       3.86080313  F
Cu      66.92058754       7.28000021       0.00000000  F
Cu      68.20752192       9.10000026       1.28693438  F
Cu      73.35525894       5.46000016       3.86080313  F
Cu      74.64219379       7.28000021       5.14773750  F
Cu      70.78139019       5.46000016       1.28693438  F
Cu      72.06832504       7.28000021       2.57386875  F
Cu      73.35525894       9.10000026       3.86080313  F
Cu      69.49445629       7.28000021       0.00000000  F
Cu      70.78139019       9.10000026       1.28693438  F
Cu      73.35525894       5.46000016       1.28693438  F
Cu      74.64219379       7.28000021       2.57386875  F
Cu      72.06832504       7.28000021       0.00000000  F
Cu      73.35525894       9.10000026       1.28693438  F
Cu      74.64219379       7.28000021       0.00000000  F
Cu      68.43960942       9.14096217       6.63090813  T
Cu      73.04759766       9.14722333       6.67236099  T
O       68.91160238       3.61373216       7.25212868  T
O       73.27859080       7.27299102       6.65427400  T
O       68.29001540       7.24912800       6.65320501  T
Cu      73.11503136       5.37566320       6.62987327  T
Cu      68.43813887       5.37096541       6.64390198  T
O       72.52911992      10.90731497       7.22157004  T
Cu      70.71996276      10.77950989       7.32877900  T
Cu      69.49445629      10.92000031       5.14773750  F
Cu      72.06832504      10.92000031       5.14773750  F
Cu      69.49445629      10.92000031       2.57386875  F
Cu      74.64219379      10.92000031       5.14773750  F
Cu      72.06832504      10.92000031       2.57386875  F
Cu      69.49445629      10.92000031       0.00000000  F
Cu      75.92912817       9.10000026       3.86080313  F
Cu      77.21606255      10.92000031       5.14773750  F
Cu      74.64219379      10.92000031       2.57386875  F
Cu      75.92912817      12.74000037       3.86080313  F
Cu      72.06832504      10.92000031       0.00000000  F
Cu      78.50299644       9.10000026       3.86080313  F
Cu      79.78993130      10.92000031       5.14773750  F
Cu      75.92912817       9.10000026       1.28693438  F
Cu      77.21606255      10.92000031       2.57386875  F
Cu      78.50299644      12.74000037       3.86080313  F
Cu      74.64219379      10.92000031       0.00000000  F
Cu      75.92912817      12.74000037       1.28693438  F
Cu      81.07686520       9.10000026       3.86080313  F
Cu      82.36380005      10.92000031       5.14773750  F
Cu      78.50299644       9.10000026       1.28693438  F
Cu      79.78993130      10.92000031       2.57386875  F
Cu      81.07686520      12.74000037       3.86080313  F
Cu      77.21606255      10.92000031       0.00000000  F
Cu      78.50299644      12.74000037       1.28693438  F
Cu      81.07686520       9.10000026       1.28693438  F
Cu      82.36380005      10.92000031       2.57386875  F
Cu      79.78993130      10.92000031       0.00000000  F
Cu      81.07686520      12.74000037       1.28693438  F
Cu      82.36380005      10.92000031       0.00000000  F
Cu      76.16121568      12.78096228       6.63090813  T
Cu      80.76920391      12.78722344       6.67236099  T
O       76.63320863       7.25373226       7.25212868  T
O       81.00019706      10.91299112       6.65427400  T
O       76.01162165      10.88912810       6.65320501  T
Cu      80.83663762       9.01566331       6.62987327  T
Cu      76.15974513       9.01096551       6.64390198  T
O       80.25072617      14.54731507       7.22157004  T
Cu      78.44156901      14.41950999       7.32877900  T
Cu      77.21606255      14.56000042       5.14773750  F
Cu      79.78993130      14.56000042       5.14773750  F
Cu      77.21606255      14.56000042       2.57386875  F
Cu      82.36380005      14.56000042       5.14773750  F
Cu      79.78993130      14.56000042       2.57386875  F
Cu      77.21606255      14.56000042       0.00000000  F
Cu      83.65073442      12.74000037       3.86080313  F
Cu      84.93766880      14.56000042       5.14773750  F
Cu      82.36380005      14.56000042       2.57386875  F
Cu      83.65073442      16.38000047       3.86080313  F
Cu      79.78993130      14.56000042       0.00000000  F
Cu      86.22460270      12.74000037       3.86080313  F
Cu      87.51153755      14.56000042       5.14773750  F
Cu      83.65073442      12.74000037       1.28693438  F
Cu      84.93766880      14.56000042       2.57386875  F
Cu      86.22460270      16.38000047       3.86080313  F
Cu      82.36380005      14.56000042       0.00000000  F
Cu      83.65073442      16.38000047       1.28693438  F
Cu      88.79847145      12.74000037       3.86080313  F
Cu      90.08540630      14.56000042       5.14773750  F
Cu      86.22460270      12.74000037       1.28693438  F
Cu      87.51153755      14.56000042       2.57386875  F
Cu      88.79847145      16.38000047       3.86080313  F
Cu      84.93766880      14.56000042       0.00000000  F
Cu      86.22460270      16.38000047       1.28693438  F
Cu      88.79847145      12.74000037       1.28693438  F
Cu      90.08540630      14.56000042       2.57386875  F
Cu      87.51153755      14.56000042       0.00000000  F
Cu      88.79847145      16.38000047       1.28693438  F
Cu      90.08540630      14.56000042       0.00000000  F
Cu      83.88282193      16.42096238       6.63090813  T
Cu      88.49081017      16.42722354       6.67236099  T
O       84.35481489      10.89373237       7.25212868  T
O       88.72180331      14.55299123       6.65427400  T
O       83.73322791      14.52912821       6.65320501  T
Cu      88.55824387      12.65566341       6.62987327  T
Cu      83.88135138      12.65096561       6.64390198  T
O       87.97233243      18.18731518       7.22157004  T
Cu      86.16317527      18.05951010       7.32877900  T
Cu      84.93766880      18.20000052       5.14773750  F
Cu      87.51153755      18.20000052       5.14773750  F
Cu      84.93766880      18.20000052       2.57386875  F
Cu      90.08540630      18.20000052       5.14773750  F
Cu      87.51153755      18.20000052       2.57386875  F
Cu      84.93766880      18.20000052       0.00000000  F
Cu      91.37234068      16.38000047       3.86080313  F
Cu      92.65927505      18.20000052       5.14773750  F
Cu      90.08540630      18.20000052       2.57386875  F
Cu      91.37234068      20.02000058       3.86080313  F
Cu      87.51153755      18.20000052       0.00000000  F
Cu      93.94620895      16.38000047       3.86080313  F
Cu      95.23314381      18.20000052       5.14773750  F
Cu      91.37234068      16.38000047       1.28693438  F
Cu      92.65927505      18.20000052       2.57386875  F
Cu      93.94620895      20.02000058       3.86080313  F
Cu      90.08540630      18.20000052       0.00000000  F
Cu      91.37234068      20.02000058       1.28693438  F
Cu      96.52007771      16.38000047       3.86080313  F
Cu      97.80701256      18.20000052       5.14773750  F
Cu      93.94620895      16.38000047       1.28693438  F
Cu      95.23314381      18.20000052       2.57386875  F
Cu      96.52007771      20.02000058       3.86080313  F
Cu      92.65927505      18.20000052       0.00000000  F
Cu      93.94620895      20.02000058       1.28693438  F
Cu      96.52007771      16.38000047       1.28693438  F
Cu      97.80701256      18.20000052       2.57386875  F
Cu      95.23314381      18.20000052       0.00000000  F
Cu      96.52007771      20.02000058       1.28693438  F
Cu      97.80701256      18.20000052       0.00000000  F
Cu      91.60442818      20.06096249       6.63090813  T
Cu      96.21241642      20.06722365       6.67236099  T
O       92.07642114      14.53373247       7.25212868  T
O       96.44340957      18.19299133       6.65427400  T
O       91.45483416      18.16912831       6.65320501  T
Cu      96.27985013      16.29566352       6.62987327  T
Cu      91.60295764      16.29096572       6.64390198  T
O       95.69393868      21.82731528       7.22157004  T
Cu      93.88478152      21.69951020       7.32877900  T
Cu      92.65927505      21.84000063       5.14773750  F
Cu      95.23314381      21.84000063       5.14773750  F
Cu      92.65927505      21.84000063       2.57386875  F
Cu      97.80701256      21.84000063       5.14773750  F
Cu      95.23314381      21.84000063       2.57386875  F
Cu      92.65927505      21.84000063       0.00000000  F
Cu      99.09394693      20.02000058       3.86080313  F
Cu     100.38088131      21.84000063       5.14773750  F
Cu      97.80701256      21.84000063       2.57386875  F
Cu      99.09394693      23.66000068       3.86080313  F
Cu      95.23314381      21.84000063       0.00000000  F
Cu     101.66781521      20.02000058       3.86080313  F
Cu     102.95475006      21.84000063       5.14773750  F
Cu      99.09394693      20.02000058       1.28693438  F
Cu     100.38088131      21.84000063       2.57386875  F
Cu     101.66781521      23.66000068       3.86080313  F
Cu      97.80701256      21.84000063       0.00000000  F
Cu      99.09394693      23.66000068       1.28693438  F
Cu     104.24168396      20.02000058       3.86080313  F
Cu     105.52861881      21.84000063       5.14773750  F
Cu     101.66781521      20.02000058       1.28693438  F
Cu     102.95475006      21.84000063       2.57386875  F
Cu     104.24168396      23.66000068       3.86080313  F
Cu     100.38088131      21.84000063       0.00000000  F
Cu     101.66781521      23.66000068       1.28693438  F
Cu     104.24168396      20.02000058       1.28693438  F
Cu     105.52861881      21.84000063       2.57386875  F
Cu     102.95475006      21.84000063       0.00000000  F
Cu     104.24168396      23.66000068       1.28693438  F
Cu     105.52861881      21.84000063       0.00000000  F
Cu      99.32603444      23.70096259       6.63090813  T
Cu     103.93402268      23.70722375       6.67236099  T
O       99.79802740      18.17373258       7.25212868  T
O      104.16501582      21.83299144       6.65427400  T
O       99.17644041      21.80912842       6.65320501  T
Cu     104.00145638      19.93566362       6.62987327  T
Cu      99.32456389      19.93096582       6.64390198  T
O      103.41554494      25.46731539       7.22157004  T
Cu     101.60638778      25.33951031       7.32877900  T
Cu      30.88642502     -14.56000042       5.14773750  F
Cu      33.46029377     -14.56000042       5.14773750  F
Cu      30.88642502     -14.56000042       2.57386875  F
Cu      36.03416252     -14.56000042       5.14773750  F
Cu      33.46029377     -14.56000042       2.57386875  F
Cu      30.88642502     -14.56000042       0.00000000  F
Cu      37.32109690     -16.38000047       3.86080313  F
Cu      38.60803127     -14.56000042       5.14773750  F
Cu      36.03416252     -14.56000042       2.57386875  F
Cu      37.32109690     -12.74000037       3.86080313  F
Cu      33.46029377     -14.56000042       0.00000000  F
Cu      39.89496517     -16.38000047       3.86080313  F
Cu      41.18190002     -14.56000042       5.14773750  F
Cu      37.32109690     -16.38000047       1.28693438  F
Cu      38.60803127     -14.56000042       2.57386875  F
Cu      39.89496517     -12.74000037       3.86080313  F
Cu      36.03416252     -14.56000042       0.00000000  F
Cu      37.32109690     -12.74000037       1.28693438  F
Cu      42.46883392     -16.38000047       3.86080313  F
Cu      43.75576878     -14.56000042       5.14773750  F
Cu      39.89496517     -16.38000047       1.28693438  F
Cu      41.18190002     -14.56000042       2.57386875  F
Cu      42.46883392     -12.74000037       3.86080313  F
Cu      38.60803127     -14.56000042       0.00000000  F
Cu      39.89496517     -12.74000037       1.28693438  F
Cu      42.46883392     -16.38000047       1.28693438  F
Cu      43.75576878     -14.56000042       2.57386875  F
Cu      41.18190002     -14.56000042       0.00000000  F
Cu      42.46883392     -12.74000037       1.28693438  F
Cu      43.75576878     -14.56000042       0.00000000  F
Cu      37.55318440     -12.69903846       6.63090813  T
Cu      42.16117264     -12.69277730       6.67236099  T
O       38.02517736     -18.22626847       7.25212868  T
O       42.39216579     -14.56700961       6.65427400  T
O       37.40359038     -14.59087263       6.65320501  T
Cu      42.22860634     -16.46433743       6.62987327  T
Cu      37.55171386     -16.46903522       6.64390198  T
O       41.64269490     -10.93268566       7.22157004  T
Cu      39.83353774     -11.06049074       7.32877900  T
Cu      38.60803127     -10.92000031       5.14773750  F
Cu      41.18190002     -10.92000031       5.14773750  F
Cu      38.60803127     -10.92000031       2.57386875  F
Cu      43.75576878     -10.92000031       5.14773750  F
Cu      41.18190002     -10.92000031       2.57386875  F
Cu      38.60803127     -10.92000031       0.00000000  F
Cu      45.04270315     -12.74000037       3.86080313  F
Cu      46.32963753     -10.92000031       5.14773750  F
Cu      43.75576878     -10.92000031       2.57386875  F
Cu      45.04270315      -9.10000026       3.86080313  F
Cu      41.18190002     -10.92000031       0.00000000  F
Cu      47.61657143     -12.74000037       3.86080313  F
Cu      48.90350628     -10.92000031       5.14773750  F
Cu      45.04270315     -12.74000037       1.28693438  F
Cu      46.32963753     -10.92000031       2.57386875  F
Cu      47.61657143      -9.10000026       3.86080313  F
Cu      43.75576878     -10.92000031       0.00000000  F
Cu      45.04270315      -9.10000026       1.28693438  F
Cu      50.19044018     -12.74000037       3.86080313  F
Cu      51.47737503     -10.92000031       5.14773750  F
Cu      47.61657143     -12.74000037       1.28693438  F
Cu      48.90350628     -10.92000031       2.57386875  F
Cu      50.19044018      -9.10000026       3.86080313  F
Cu      46.32963753     -10.92000031       0.00000000  F
Cu      47.61657143      -9.10000026       1.28693438  F
Cu      50.19044018     -12.74000037       1.28693438  F
Cu      51.47737503     -10.92000031       2.57386875  F
Cu      48.90350628     -10.92000031       0.00000000  F
Cu      50.19044018      -9.10000026       1.28693438  F
Cu      51.47737503     -10.92000031       0.00000000  F
Cu      45.27479066      -9.05903835       6.63090813  T
Cu      49.88277889      -9.05277719       6.67236099  T
O       45.74678362     -14.58626837       7.25212868  T
O       50.11377204     -10.92700951       6.65427400  T
O       45.12519663     -10.95087252       6.65320501  T
Cu      49.95021260     -12.82433732       6.62987327  T
Cu      45.27332011     -12.82903512       6.64390198  T
O       49.36430116      -7.29268556       7.22157004  T
Cu      47.55514399      -7.42049064       7.32877900  T
Cu      46.32963753      -7.28000021       5.14773750  F
Cu      48.90350628      -7.28000021       5.14773750  F
Cu      46.32963753      -7.28000021       2.57386875  F
Cu      51.47737503      -7.28000021       5.14773750  F
Cu      48.90350628      -7.28000021       2.57386875  F
Cu      46.32963753      -7.28000021       0.00000000  F
Cu      52.76430941      -9.10000026       3.86080313  F
Cu      54.05124378      -7.28000021       5.14773750  F
Cu      51.47737503      -7.28000021       2.57386875  F
Cu      52.76430941      -5.46000016       3.86080313  F
Cu      48.90350628      -7.28000021       0.00000000  F
Cu      55.33817768      -9.10000026       3.86080313  F
Cu      56.62511253      -7.28000021       5.14773750  F
Cu      52.76430941      -9.10000026       1.28693438  F
Cu      54.05124378      -7.28000021       2.57386875  F
Cu      55.33817768      -5.46000016       3.86080313  F
Cu      51.47737503      -7.28000021       0.00000000  F
Cu      52.76430941      -5.46000016       1.28693438  F
Cu      57.91204643      -9.10000026       3.86080313  F
Cu      59.19898129      -7.28000021       5.14773750  F
Cu      55.33817768      -9.10000026       1.28693438  F
Cu      56.62511253      -7.28000021       2.57386875  F
Cu      57.91204643      -5.46000016       3.86080313  F
Cu      54.05124378      -7.28000021       0.00000000  F
Cu      55.33817768      -5.46000016       1.28693438  F
Cu      57.91204643      -9.10000026       1.28693438  F
Cu      59.19898129      -7.28000021       2.57386875  F
Cu      56.62511253      -7.28000021       0.00000000  F
Cu      57.91204643      -5.46000016       1.28693438  F
Cu      59.19898129      -7.28000021       0.00000000  F
Cu      52.99639691      -5.41903825       6.63090813  T
Cu      57.60438515      -5.41277709       6.67236099  T
O       53.46838987     -10.94626826       7.25212868  T
O       57.83537830      -7.28700940       6.65427400  T
O       52.84680289      -7.31087242       6.65320501  T
Cu      57.67181885      -9.18433722       6.62987327  T
Cu      52.99492636      -9.18903501       6.64390198  T
O       57.08590741      -3.65268545       7.22157004  T
Cu      55.27675025      -3.78049053       7.32877900  T
Cu      54.05124378      -3.64000010       5.14773750  F
Cu      56.62511253      -3.64000010       5.14773750  F
Cu      54.05124378      -3.64000010       2.57386875  F
Cu      59.19898129      -3.64000010       5.14773750  F
Cu      56.62511253      -3.64000010       2.57386875  F
Cu      54.05124378      -3.64000010       0.00000000  F
Cu      60.48591566      -5.46000016       3.86080313  F
Cu      61.77285004      -3.64000010       5.14773750  F
Cu      59.19898129      -3.64000010       2.57386875  F
Cu      60.48591566      -1.82000005       3.86080313  F
Cu      56.62511253      -3.64000010       0.00000000  F
Cu      63.05978394      -5.46000016       3.86080313  F
Cu      64.34671879      -3.64000010       5.14773750  F
Cu      60.48591566      -5.46000016       1.28693438  F
Cu      61.77285004      -3.64000010       2.57386875  F
Cu      63.05978394      -1.82000005       3.86080313  F
Cu      59.19898129      -3.64000010       0.00000000  F
Cu      60.48591566      -1.82000005       1.28693438  F
Cu      65.63365269      -5.46000016       3.86080313  F
Cu      66.92058754      -3.64000010       5.14773750  F
Cu      63.05978394      -5.46000016       1.28693438  F
Cu      64.34671879      -3.64000010       2.57386875  F
Cu      65.63365269      -1.82000005       3.86080313  F
Cu      61.77285004      -3.64000010       0.00000000  F
Cu      63.05978394      -1.82000005       1.28693438  F
Cu      65.63365269      -5.46000016       1.28693438  F
Cu      66.92058754      -3.64000010       2.57386875  F
Cu      64.34671879      -3.64000010       0.00000000  F
Cu      65.63365269      -1.82000005       1.28693438  F
Cu      66.92058754      -3.64000010       0.00000000  F
Cu      60.71800317      -1.77903814       6.63090813  T
Cu      65.32599140      -1.77277698       6.67236099  T
O       61.18999613      -7.30626816       7.25212868  T
O       65.55698455      -3.64700930       6.65427400  T
O       60.56840914      -3.67087232       6.65320501  T
Cu      65.39342511      -5.54433711       6.62987327  T
Cu      60.71653262      -5.54903491       6.64390198  T
O       64.80751367      -0.01268535       7.22157004  T
Cu      62.99835650      -0.14049043       7.32877900  T
Cu      61.77285004       0.00000000       5.14773750  F
Cu      64.34671879       0.00000000       5.14773750  F
Cu      61.77285004       0.00000000       2.57386875  F
Cu      66.92058754       0.00000000       5.14773750  F
Cu      64.34671879       0.00000000       2.57386875  F
Cu      61.77285004       0.00000000       0.00000000  F
Cu      68.20752192      -1.82000005       3.86080313  F
Cu      69.49445629       0.00000000       5.14773750  F
Cu      66.92058754       0.00000000       2.57386875  F
Cu      68.20752192       1.82000005       3.86080313  F
Cu      64.34671879       0.00000000       0.00000000  F
Cu      70.78139019      -1.82000005       3.86080313  F
Cu      72.06832504       0.00000000       5.14773750  F
Cu      68.20752192      -1.82000005       1.28693438  F
Cu      69.49445629       0.00000000       2.57386875  F
Cu      70.78139019       1.82000005       3.86080313  F
Cu      66.92058754       0.00000000       0.00000000  F
Cu      68.20752192       1.82000005       1.28693438  F
Cu      73.35525894      -1.82000005       3.86080313  F
Cu      74.64219379       0.00000000       5.14773750  F
Cu      70.78139019      -1.82000005       1.28693438  F
Cu      72.06832504       0.00000000       2.57386875  F
Cu      73.35525894       1.82000005       3.86080313  F
Cu      69.49445629       0.00000000       0.00000000  F
Cu      70.78139019       1.82000005       1.28693438  F
Cu      73.35525894      -1.82000005       1.28693438  F
Cu      74.64219379       0.00000000       2.57386875  F
Cu      72.06832504       0.00000000       0.00000000  F
Cu      73.35525894       1.82000005       1.28693438  F
Cu      74.64219379       0.00000000       0.00000000  F
Cu      68.43960942       1.86096196       6.63090813  T
Cu      73.04759766       1.86722312       6.67236099  T
O       68.91160238      -3.66626805       7.25212868  T
O       73.27859080      -0.00700919       6.65427400  T
O       68.29001540      -0.03087221       6.65320501  T
Cu      73.11503136      -1.90433701       6.62987327  T
Cu      68.43813887      -1.90903480       6.64390198  T
O       72.52911992       3.62731476       7.22157004  T
Cu      70.71996276       3.49950968       7.32877900  T
Cu      69.49445629       3.64000010       5.14773750  F
Cu      72.06832504       3.64000010       5.14773750  F
Cu      69.49445629       3.64000010       2.57386875  F
Cu      74.64219379       3.64000010       5.14773750  F
Cu      72.06832504       3.64000010       2.57386875  F
Cu      69.49445629       3.64000010       0.00000000  F
Cu      75.92912817       1.82000005       3.86080313  F
Cu      77.21606255       3.64000010       5.14773750  F
Cu      74.64219379       3.64000010       2.57386875  F
Cu      75.92912817       5.46000016       3.86080313  F
Cu      72.06832504       3.64000010       0.00000000  F
Cu      78.50299644       1.82000005       3.86080313  F
Cu      79.78993130       3.64000010       5.14773750  F
Cu      75.92912817       1.82000005       1.28693438  F
Cu      77.21606255       3.64000010       2.57386875  F
Cu      78.50299644       5.46000016       3.86080313  F
Cu      74.64219379       3.64000010       0.00000000  F
Cu      75.92912817       5.46000016       1.28693438  F
Cu      81.07686520       1.82000005       3.86080313  F
Cu      82.36380005       3.64000010       5.14773750  F
Cu      78.50299644       1.82000005       1.28693438  F
Cu      79.78993130       3.64000010       2.57386875  F
Cu      81.07686520       5.46000016       3.86080313  F
Cu      77.21606255       3.64000010       0.00000000  F
Cu      78.50299644       5.46000016       1.28693438  F
Cu      81.07686520       1.82000005       1.28693438  F
Cu      82.36380005       3.64000010       2.57386875  F
Cu      79.78993130       3.64000010       0.00000000  F
Cu      81.07686520       5.46000016       1.28693438  F
Cu      82.36380005       3.64000010       0.00000000  F
Cu      76.16121568       5.50096207       6.63090813  T
Cu      80.76920391       5.50722323       6.67236099  T
O       76.63320863      -0.02626795       7.25212868  T
O       81.00019706       3.63299091       6.65427400  T
O       76.01162165       3.60912789       6.65320501  T
Cu      80.83663762       1.73566310       6.62987327  T
Cu      76.15974513       1.73096530       6.64390198  T
O       80.25072617       7.26731486       7.22157004  T
Cu      78.44156901       7.13950978       7.32877900  T
Cu      77.21606255       7.28000021       5.14773750  F
Cu      79.78993130       7.28000021       5.14773750  F
Cu      77.21606255       7.28000021       2.57386875  F
Cu      82.36380005       7.28000021       5.14773750  F
Cu      79.78993130       7.28000021       2.57386875  F
Cu      77.21606255       7.28000021       0.00000000  F
Cu      83.65073442       5.46000016       3.86080313  F
Cu      84.93766880       7.28000021       5.14773750  F
Cu      82.36380005       7.28000021       2.57386875  F
Cu      83.65073442       9.10000026       3.86080313  F
Cu      79.78993130       7.28000021       0.00000000  F
Cu      86.22460270       5.46000016       3.86080313  F
Cu      87.51153755       7.28000021       5.14773750  F
Cu      83.65073442       5.46000016       1.28693438  F
Cu      84.93766880       7.28000021       2.57386875  F
Cu      86.22460270       9.10000026       3.86080313  F
Cu      82.36380005       7.28000021       0.00000000  F
Cu      83.65073442       9.10000026       1.28693438  F
Cu      88.79847145       5.46000016       3.86080313  F
Cu      90.08540630       7.28000021       5.14773750  F
Cu      86.22460270       5.46000016       1.28693438  F
Cu      87.51153755       7.28000021       2.57386875  F
Cu      88.79847145       9.10000026       3.86080313  F
Cu      84.93766880       7.28000021       0.00000000  F
Cu      86.22460270       9.10000026       1.28693438  F
Cu      88.79847145       5.46000016       1.28693438  F
Cu      90.08540630       7.28000021       2.57386875  F
Cu      87.51153755       7.28000021       0.00000000  F
Cu      88.79847145       9.10000026       1.28693438  F
Cu      90.08540630       7.28000021       0.00000000  F
Cu      83.88282193       9.14096217       6.63090813  T
Cu      88.49081017       9.14722333       6.67236099  T
O       84.35481489       3.61373216       7.25212868  T
O       88.72180331       7.27299102       6.65427400  T
O       83.73322791       7.24912800       6.65320501  T
Cu      88.55824387       5.37566320       6.62987327  T
Cu      83.88135138       5.37096541       6.64390198  T
O       87.97233243      10.90731497       7.22157004  T
Cu      86.16317527      10.77950989       7.32877900  T
Cu      84.93766880      10.92000031       5.14773750  F
Cu      87.51153755      10.92000031       5.14773750  F
Cu      84.93766880      10.92000031       2.57386875  F
Cu      90.08540630      10.92000031       5.14773750  F
Cu      87.51153755      10.92000031       2.57386875  F
Cu      84.93766880      10.92000031       0.00000000  F
Cu      91.37234068       9.10000026       3.86080313  F
Cu      92.65927505      10.92000031       5.14773750  F
Cu      90.08540630      10.92000031       2.57386875  F
Cu      91.37234068      12.74000037       3.86080313  F
Cu      87.51153755      10.92000031       0.00000000  F
Cu      93.94620895       9.10000026       3.86080313  F
Cu      95.23314381      10.92000031       5.14773750  F
Cu      91.37234068       9.10000026       1.28693438  F
Cu      92.65927505      10.92000031       2.57386875  F
Cu      93.94620895      12.74000037       3.86080313  F
Cu      90.08540630      10.92000031       0.00000000  F
Cu      91.37234068      12.74000037       1.28693438  F
Cu      96.52007771       9.10000026       3.86080313  F
Cu      97.80701256      10.92000031       5.14773750  F
Cu      93.94620895       9.10000026       1.28693438  F
Cu      95.23314381      10.92000031       2.57386875  F
Cu      96.52007771      12.74000037       3.86080313  F
Cu      92.65927505      10.92000031       0.00000000  F
Cu      93.94620895      12.74000037       1.28693438  F
Cu      96.52007771       9.10000026       1.28693438  F
Cu      97.80701256      10.92000031       2.57386875  F
Cu      95.23314381      10.92000031       0.00000000  F
Cu      96.52007771      12.74000037       1.28693438  F
Cu      97.80701256      10.92000031       0.00000000  F
Cu      91.60442818      12.78096228       6.63090813  T
Cu      96.21241642      12.78722344       6.67236099  T
O       92.07642114       7.25373226       7.25212868  T
O       96.44340957      10.91299112       6.65427400  T
O       91.45483416      10.88912810       6.65320501  T
Cu      96.27985013       9.01566331       6.62987327  T
Cu      91.60295764       9.01096551       6.64390198  T
O       95.69393868      14.54731507       7.22157004  T
Cu      93.88478152      14.41950999       7.32877900  T
Cu      92.65927505      14.56000042       5.14773750  F
Cu      95.23314381      14.56000042       5.14773750  F
Cu      92.65927505      14.56000042       2.57386875  F
Cu      97.80701256      14.56000042       5.14773750  F
Cu      95.23314381      14.56000042       2.57386875  F
Cu      92.65927505      14.56000042       0.00000000  F
Cu      99.09394693      12.74000037       3.86080313  F
Cu     100.38088131      14.56000042       5.14773750  F
Cu      97.80701256      14.56000042       2.57386875  F
Cu      99.09394693      16.38000047       3.86080313  F
Cu      95.23314381      14.56000042       0.00000000  F
Cu     101.66781521      12.74000037       3.86080313  F
Cu     102.95475006      14.56000042       5.14773750  F
Cu      99.09394693      12.74000037       1.28693438  F
Cu     100.38088131      14.56000042       2.57386875  F
Cu     101.66781521      16.38000047       3.86080313  F
Cu      97.80701256      14.56000042       0.00000000  F
Cu      99.09394693      16.38000047       1.28693438  F
Cu     104.24168396      12.74000037       3.86080313  F
Cu     105.52861881      14.56000042       5.14773750  F
Cu     101.66781521      12.74000037       1.28693438  F
Cu     102.95475006      14.56000042       2.57386875  F
Cu     104.24168396      16.38000047       3.86080313  F
Cu     100.38088131      14.56000042       0.00000000  F
Cu     101.66781521      16.38000047       1.28693438  F
Cu     104.24168396      12.74000037       1.28693438  F
Cu     105.52861881      14.56000042       2.57386875  F
Cu     102.95475006      14.56000042       0.00000000  F
Cu     104.24168396      16.38000047       1.28693438  F
Cu     105.52861881      14.56000042       0.00000000  F
Cu      99.32603444      16.42096238       6.63090813  T
Cu     103.93402268      16.42722354       6.67236099  T
O       99.79802740      10.89373237       7.25212868  T
O      104.16501582      14.55299123       6.65427400  T
O       99.17644041      14.52912821       6.65320501  T
Cu     104.00145638      12.65566341       6.62987327  T
Cu      99.32456389      12.65096561       6.64390198  T
O      103.41554494      18.18731518       7.22157004  T
Cu     101.60638778      18.05951010       7.32877900  T
Cu     100.38088131      18.20000052       5.14773750  F
Cu     102.95475006      18.20000052       5.14773750  F
Cu     100.38088131      18.20000052       2.57386875  F
Cu     105.52861881      18.20000052       5.14773750  F
Cu     102.95475006      18.20000052       2.57386875  F
Cu     100.38088131      18.20000052       0.00000000  F
Cu     106.81555319      16.38000047       3.86080313  F
Cu     108.10248756      18.20000052       5.14773750  F
Cu     105.52861881      18.20000052       2.57386875  F
Cu     106.81555319      20.02000058       3.86080313  F
Cu     102.95475006      18.20000052       0.00000000  F
Cu     109.38942146      16.38000047       3.86080313  F
Cu     110.67635632      18.20000052       5.14773750  F
Cu     106.81555319      16.38000047       1.28693438  F
Cu     108.10248756      18.20000052       2.57386875  F
Cu     109.38942146      20.02000058       3.86080313  F
Cu     105.52861881      18.20000052       0.00000000  F
Cu     106.81555319      20.02000058       1.28693438  F
Cu     111.96329021      16.38000047       3.86080313  F
Cu     113.25022507      18.20000052       5.14773750  F
Cu     109.38942146      16.38000047       1.28693438  F
Cu     110.67635632      18.20000052       2.57386875  F
Cu     111.96329021      20.02000058       3.86080313  F
Cu     108.10248756      18.20000052       0.00000000  F
Cu     109.38942146      20.02000058       1.28693438  F
Cu     111.96329021      16.38000047       1.28693438  F
Cu     113.25022507      18.20000052       2.57386875  F
Cu     110.67635632      18.20000052       0.00000000  F
Cu     111.96329021      20.02000058       1.28693438  F
Cu     113.25022507      18.20000052       0.00000000  F
Cu     107.04764069      20.06096249       6.63090813  T
Cu     111.65562893      20.06722365       6.67236099  T
O      107.51963365      14.53373247       7.25212868  T
O      111.88662208      18.19299133       6.65427400  T
O      106.89804667      18.16912831       6.65320501  T
Cu     111.72306263      16.29566352       6.62987327  T
Cu     107.04617015      16.29096572       6.64390198  T
O      111.13715119      21.82731528       7.22157004  T
Cu     109.32799403      21.69951020       7.32877900  T
Cu      38.60803127     -18.20000052       5.14773750  F
Cu      41.18190002     -18.20000052       5.14773750  F
Cu      38.60803127     -18.20000052       2.57386875  F
Cu      43.75576878     -18.20000052       5.14773750  F
Cu      41.18190002     -18.20000052       2.57386875  F
Cu      38.60803127     -18.20000052       0.00000000  F
Cu      45.04270315     -20.02000058       3.86080313  F
Cu      46.32963753     -18.20000052       5.14773750  F
Cu      43.75576878     -18.20000052       2.57386875  F
Cu      45.04270315     -16.38000047       3.86080313  F
Cu      41.18190002     -18.20000052       0.00000000  F
Cu      47.61657143     -20.02000058       3.86080313  F
Cu      48.90350628     -18.20000052       5.14773750  F
Cu      45.04270315     -20.02000058       1.28693438  F
Cu      46.32963753     -18.20000052       2.57386875  F
Cu      47.61657143     -16.38000047       3.86080313  F
Cu      43.75576878     -18.20000052       0.00000000  F
Cu      45.04270315     -16.38000047       1.28693438  F
Cu      50.19044018     -20.02000058       3.86080313  F
Cu      51.47737503     -18.20000052       5.14773750  F
Cu      47.61657143     -20.02000058       1.28693438  F
Cu      48.90350628     -18.20000052       2.57386875  F
Cu      50.19044018     -16.38000047       3.86080313  F
Cu      46.32963753     -18.20000052       0.00000000  F
Cu      47.61657143     -16.38000047       1.28693438  F
Cu      50.19044018     -20.02000058       1.28693438  F
Cu      51.47737503     -18.20000052       2.57386875  F
Cu      48.90350628     -18.20000052       0.00000000  F
Cu      50.19044018     -16.38000047       1.28693438  F
Cu      51.47737503     -18.20000052       0.00000000  F
Cu      45.27479066     -16.33903856       6.63090813  T
Cu      49.88277889     -16.33277740       6.67236099  T
O       45.74678362     -21.86626858       7.25212868  T
O       50.11377204     -18.20700972       6.65427400  T
O       45.12519663     -18.23087273       6.65320501  T
Cu      49.95021260     -20.10433753       6.62987327  T
Cu      45.27332011     -20.10903533       6.64390198  T
O       49.36430116     -14.57268577       7.22157004  T
Cu      47.55514399     -14.70049085       7.32877900  T
Cu      46.32963753     -14.56000042       5.14773750  F
Cu      48.90350628     -14.56000042       5.14773750  F
Cu      46.32963753     -14.56000042       2.57386875  F
Cu      51.47737503     -14.56000042       5.14773750  F
Cu      48.90350628     -14.56000042       2.57386875  F
Cu      46.32963753     -14.56000042       0.00000000  F
Cu      52.76430941     -16.38000047       3.86080313  F
Cu      54.05124378     -14.56000042       5.14773750  F
Cu      51.47737503     -14.56000042       2.57386875  F
Cu      52.76430941     -12.74000037       3.86080313  F
Cu      48.90350628     -14.56000042       0.00000000  F
Cu      55.33817768     -16.38000047       3.86080313  F
Cu      56.62511253     -14.56000042       5.14773750  F
Cu      52.76430941     -16.38000047       1.28693438  F
Cu      54.05124378     -14.56000042       2.57386875  F
Cu      55.33817768     -12.74000037       3.86080313  F
Cu      51.47737503     -14.56000042       0.00000000  F
Cu      52.76430941     -12.74000037       1.28693438  F
Cu      57.91204643     -16.38000047       3.86080313  F
Cu      59.19898129     -14.56000042       5.14773750  F
Cu      55.33817768     -16.38000047       1.28693438  F
Cu      56.62511253     -14.56000042       2.57386875  F
Cu      57.91204643     -12.74000037       3.86080313  F
Cu      54.05124378     -14.56000042       0.00000000  F
Cu      55.33817768     -12.74000037       1.28693438  F
Cu      57.91204643     -16.38000047       1.28693438  F
Cu      59.19898129     -14.56000042       2.57386875  F
Cu      56.62511253     -14.56000042       0.00000000  F
Cu      57.91204643     -12.74000037       1.28693438  F
Cu      59.19898129     -14.56000042       0.00000000  F
Cu      52.99639691     -12.69903846       6.63090813  T
Cu      57.60438515     -12.69277730       6.67236099  T
O       53.46838987     -18.22626847       7.25212868  T
O       57.83537830     -14.56700961       6.65427400  T
O       52.84680289     -14.59087263       6.65320501  T
Cu      57.67181885     -16.46433743       6.62987327  T
Cu      52.99492636     -16.46903522       6.64390198  T
O       57.08590741     -10.93268566       7.22157004  T
Cu      55.27675025     -11.06049074       7.32877900  T
Cu      54.05124378     -10.92000031       5.14773750  F
Cu      56.62511253     -10.92000031       5.14773750  F
Cu      54.05124378     -10.92000031       2.57386875  F
Cu      59.19898129     -10.92000031       5.14773750  F
Cu      56.62511253     -10.92000031       2.57386875  F
Cu      54.05124378     -10.92000031       0.00000000  F
Cu      60.48591566     -12.74000037       3.86080313  F
Cu      61.77285004     -10.92000031       5.14773750  F
Cu      59.19898129     -10.92000031       2.57386875  F
Cu      60.48591566      -9.10000026       3.86080313  F
Cu      56.62511253     -10.92000031       0.00000000  F
Cu      63.05978394     -12.74000037       3.86080313  F
Cu      64.34671879     -10.92000031       5.14773750  F
Cu      60.48591566     -12.74000037       1.28693438  F
Cu      61.77285004     -10.92000031       2.57386875  F
Cu      63.05978394      -9.10000026       3.86080313  F
Cu      59.19898129     -10.92000031       0.00000000  F
Cu      60.48591566      -9.10000026       1.28693438  F
Cu      65.63365269     -12.74000037       3.86080313  F
Cu      66.92058754     -10.92000031       5.14773750  F
Cu      63.05978394     -12.74000037       1.28693438  F
Cu      64.34671879     -10.92000031       2.57386875  F
Cu      65.63365269      -9.10000026       3.86080313  F
Cu      61.77285004     -10.92000031       0.00000000  F
Cu      63.05978394      -9.10000026       1.28693438  F
Cu      65.63365269     -12.74000037       1.28693438  F
Cu      66.92058754     -10.92000031       2.57386875  F
Cu      64.34671879     -10.92000031       0.00000000  F
Cu      65.63365269      -9.10000026       1.28693438  F
Cu      66.92058754     -10.92000031       0.00000000  F
Cu      60.71800317      -9.05903835       6.63090813  T
Cu      65.32599140      -9.05277719       6.67236099  T
O       61.18999613     -14.58626837       7.25212868  T
O       65.55698455     -10.92700951       6.65427400  T
O       60.56840914     -10.95087252       6.65320501  T
Cu      65.39342511     -12.82433732       6.62987327  T
Cu      60.71653262     -12.82903512       6.64390198  T
O       64.80751367      -7.29268556       7.22157004  T
Cu      62.99835650      -7.42049064       7.32877900  T
Cu      61.77285004      -7.28000021       5.14773750  F
Cu      64.34671879      -7.28000021       5.14773750  F
Cu      61.77285004      -7.28000021       2.57386875  F
Cu      66.92058754      -7.28000021       5.14773750  F
Cu      64.34671879      -7.28000021       2.57386875  F
Cu      61.77285004      -7.28000021       0.00000000  F
Cu      68.20752192      -9.10000026       3.86080313  F
Cu      69.49445629      -7.28000021       5.14773750  F
Cu      66.92058754      -7.28000021       2.57386875  F
Cu      68.20752192      -5.46000016       3.86080313  F
Cu      64.34671879      -7.28000021       0.00000000  F
Cu      70.78139019      -9.10000026       3.86080313  F
Cu      72.06832504      -7.28000021       5.14773750  F
Cu      68.20752192      -9.10000026       1.28693438  F
Cu      69.49445629      -7.28000021       2.57386875  F
Cu      70.78139019      -5.46000016       3.86080313  F
Cu      66.92058754      -7.28000021       0.00000000  F
Cu      68.20752192      -5.46000016       1.28693438  F
Cu      73.35525894      -9.10000026       3.86080313  F
Cu      74.64219379      -7.28000021       5.14773750  F
Cu      70.78139019      -9.10000026       1.28693438  F
Cu      72.06832504      -7.28000021       2.57386875  F
Cu      73.35525894      -5.46000016       3.86080313  F
Cu      69.49445629      -7.28000021       0.00000000  F
Cu      70.78139019      -5.46000016       1.28693438  F
Cu      73.35525894      -9.10000026       1.28693438  F
Cu      74.64219379      -7.28000021       2.57386875  F
Cu      72.06832504      -7.28000021       0.00000000  F
Cu      73.35525894      -5.46000016       1.28693438  F
Cu      74.64219379      -7.28000021       0.00000000  F
Cu      68.43960942      -5.41903825       6.63090813  T
Cu      73.04759766      -5.41277709       6.67236099  T
O       68.91160238     -10.94626826       7.25212868  T
O       73.27859080      -7.28700940       6.65427400  T
O       68.29001540      -7.31087242       6.65320501  T
Cu      73.11503136      -9.18433722       6.62987327  T
Cu      68.43813887      -9.18903501       6.64390198  T
O       72.52911992      -3.65268545       7.22157004  T
Cu      70.71996276      -3.78049053       7.32877900  T
Cu      69.49445629      -3.64000010       5.14773750  F
Cu      72.06832504      -3.64000010       5.14773750  F
Cu      69.49445629      -3.64000010       2.57386875  F
Cu      74.64219379      -3.64000010       5.14773750  F
Cu      72.06832504      -3.64000010       2.57386875  F
Cu      69.49445629      -3.64000010       0.00000000  F
Cu      75.92912817      -5.46000016       3.86080313  F
Cu      77.21606255      -3.64000010       5.14773750  F
Cu      74.64219379      -3.64000010       2.57386875  F
Cu      75.92912817      -1.82000005       3.86080313  F
Cu      72.06832504      -3.64000010       0.00000000  F
Cu      78.50299644      -5.46000016       3.86080313  F
Cu      79.78993130      -3.64000010       5.14773750  F
Cu      75.92912817      -5.46000016       1.28693438  F
Cu      77.21606255      -3.64000010       2.57386875  F
Cu      78.50299644      -1.82000005       3.86080313  F
Cu      74.64219379      -3.64000010       0.00000000  F
Cu      75.92912817      -1.82000005       1.28693438  F
Cu      81.07686520      -5.46000016       3.86080313  F
Cu      82.36380005      -3.64000010       5.14773750  F
Cu      78.50299644      -5.46000016       1.28693438  F
Cu      79.78993130      -3.64000010       2.57386875  F
Cu      81.07686520      -1.82000005       3.86080313  F
Cu      77.21606255      -3.64000010       0.00000000  F
Cu      78.50299644      -1.82000005       1.28693438  F
Cu      81.07686520      -5.46000016       1.28693438  F
Cu      82.36380005      -3.64000010       2.57386875  F
Cu      79.78993130      -3.64000010       0.00000000  F
Cu      81.07686520      -1.82000005       1.28693438  F
Cu      82.36380005      -3.64000010       0.00000000  F
Cu      76.16121568      -1.77903814       6.63090813  T
Cu      80.76920391      -1.77277698       6.67236099  T
O       76.63320863      -7.30626816       7.25212868  T
O       81.00019706      -3.64700930       6.65427400  T
O       76.01162165      -3.67087232       6.65320501  T
Cu      80.83663762      -5.54433711       6.62987327  T
Cu      76.15974513      -5.54903491       6.64390198  T
O       80.25072617      -0.01268535       7.22157004  T
Cu      78.44156901      -0.14049043       7.32877900  T
Cu      77.21606255       0.00000000       5.14773750  F
Cu      79.78993130       0.00000000       5.14773750  F
Cu      77.21606255       0.00000000       2.57386875  F
Cu      82.36380005       0.00000000       5.14773750  F
Cu      79.78993130       0.00000000       2.57386875  F
Cu      77.21606255       0.00000000       0.00000000  F
Cu      83.65073442      -1.82000005       3.86080313  F
Cu      84.93766880       0.00000000       5.14773750  F
Cu      82.36380005       0.00000000       2.57386875  F
Cu      83.65073442       1.82000005       3.86080313  F
Cu      79.78993130       0.00000000       0.00000000  F
Cu      86.22460270      -1.82000005       3.86080313  F
Cu      87.51153755       0.00000000       5.14773750  F
Cu      83.65073442      -1.82000005       1.28693438  F
Cu      84.93766880       0.00000000       2.57386875  F
Cu      86.22460270       1.82000005       3.86080313  F
Cu      82.36380005       0.00000000       0.00000000  F
Cu      83.65073442       1.82000005       1.28693438  F
Cu      88.79847145      -1.82000005       3.86080313  F
Cu      90.08540630       0.00000000       5.14773750  F
Cu      86.22460270      -1.82000005       1.28693438  F
Cu      87.51153755       0.00000000       2.57386875  F
Cu      88.79847145       1.82000005       3.86080313  F
Cu      84.93766880       0.00000000       0.00000000  F
Cu      86.22460270       1.82000005       1.28693438  F
Cu      88.79847145      -1.82000005       1.28693438  F
Cu      90.08540630       0.00000000       2.57386875  F
Cu      87.51153755       0.00000000       0.00000000  F
Cu      88.79847145       1.82000005       1.28693438  F
Cu      90.08540630       0.00000000       0.00000000  F
Cu      83.88282193       1.86096196       6.63090813  T
Cu      88.49081017       1.86722312       6.67236099  T
O       84.35481489      -3.66626805       7.25212868  T
O       88.72180331      -0.00700919       6.65427400  T
O       83.73322791      -0.03087221       6.65320501  T
Cu      88.55824387      -1.90433701       6.62987327  T
Cu      83.88135138      -1.90903480       6.64390198  T
O       87.97233243       3.62731476       7.22157004  T
Cu      86.16317527       3.49950968       7.32877900  T
Cu      84.93766880       3.64000010       5.14773750  F
Cu      87.51153755       3.64000010       5.14773750  F
Cu      84.93766880       3.64000010       2.57386875  F
Cu      90.08540630       3.64000010       5.14773750  F
Cu      87.51153755       3.64000010       2.57386875  F
Cu      84.93766880       3.64000010       0.00000000  F
Cu      91.37234068       1.82000005       3.86080313  F
Cu      92.65927505       3.64000010       5.14773750  F
Cu      90.08540630       3.64000010       2.57386875  F
Cu      91.37234068       5.46000016       3.86080313  F
Cu      87.51153755       3.64000010       0.00000000  F
Cu      93.94620895       1.82000005       3.86080313  F
Cu      95.23314381       3.64000010       5.14773750  F
Cu      91.37234068       1.82000005       1.28693438  F
Cu      92.65927505       3.64000010       2.57386875  F
Cu      93.94620895       5.46000016       3.86080313  F
Cu      90.08540630       3.64000010       0.00000000  F
Cu      91.37234068       5.46000016       1.28693438  F
Cu      96.52007771       1.82000005       3.86080313  F
Cu      97.80701256       3.64000010       5.14773750  F
Cu      93.94620895       1.82000005       1.28693438  F
Cu      95.23314381       3.64000010       2.57386875  F
Cu      96.52007771       5.46000016       3.86080313  F
Cu      92.65927505       3.64000010       0.00000000  F
Cu      93.94620895       5.46000016       1.28693438  F
Cu      96.52007771       1.82000005       1.28693438  F
Cu      97.80701256       3.64000010       2.57386875  F
Cu      95.23314381       3.64000010       0.00000000  F
Cu      96.52007771       5.46000016       1.28693438  F
Cu      97.80701256       3.64000010       0.00000000  F
Cu      91.60442818       5.50096207       6.63090813  T
Cu      96.21241642       5.50722323       6.67236099  T
O       92.07642114      -0.02626795       7.25212868  T
O       96.44340957       3.63299091       6.65427400  T
O       91.45483416       3.60912789       6.65320501  T
Cu      96.27985013       1.73566310       6.62987327  T
Cu      91.60295764       1.73096530       6.64390198  T
O       95.69393868       7.26731486       7.22157004  T
Cu      93.88478152       7.13950978       7.32877900  T
Cu      92.65927505       7.28000021       5.14773750  F
Cu      95.23314381       7.28000021       5.14773750  F
Cu      92.65927505       7.28000021       2.57386875  F
Cu      97.80701256       7.28000021       5.14773750  F
Cu      95.23314381       7.28000021       2.57386875  F
Cu      92.65927505       7.28000021       0.00000000  F
Cu      99.09394693       5.46000016       3.86080313  F
Cu     100.38088131       7.28000021       5.14773750  F
Cu      97.80701256       7.28000021       2.57386875  F
Cu      99.09394693       9.10000026       3.86080313  F
Cu      95.23314381       7.28000021       0.00000000  F
Cu     101.66781521       5.46000016       3.86080313  F
Cu     102.95475006       7.28000021       5.14773750  F
Cu      99.09394693       5.46000016       1.28693438  F
Cu     100.38088131       7.28000021       2.57386875  F
Cu     101.66781521       9.10000026       3.86080313  F
Cu      97.80701256       7.28000021       0.00000000  F
Cu      99.09394693       9.10000026       1.28693438  F
Cu     104.24168396       5.46000016       3.86080313  F
Cu     105.52861881       7.28000021       5.14773750  F
Cu     101.66781521       5.46000016       1.28693438  F
Cu     102.95475006       7.28000021       2.57386875  F
Cu     104.24168396       9.10000026       3.86080313  F
Cu     100.38088131       7.28000021       0.00000000  F
Cu     101.66781521       9.10000026       1.28693438  F
Cu     104.24168396       5.46000016       1.28693438  F
Cu     105.52861881       7.28000021       2.57386875  F
Cu     102.95475006       7.28000021       0.00000000  F
Cu     104.24168396       9.10000026       1.28693438  F
Cu     105.52861881       7.28000021       0.00000000  F
Cu      99.32603444       9.14096217       6.63090813  T
Cu     103.93402268       9.14722333       6.67236099  T
O       99.79802740       3.61373216       7.25212868  T
O      104.16501582       7.27299102       6.65427400  T
O       99.17644041       7.24912800       6.65320501  T
Cu     104.00145638       5.37566320       6.62987327  T
Cu      99.32456389       5.37096541       6.64390198  T
O      103.41554494      10.90731497       7.22157004  T
Cu     101.60638778      10.77950989       7.32877900  T
Cu     100.38088131      10.92000031       5.14773750  F
Cu     102.95475006      10.92000031       5.14773750  F
Cu     100.38088131      10.92000031       2.57386875  F
Cu     105.52861881      10.92000031       5.14773750  F
Cu     102.95475006      10.92000031       2.57386875  F
Cu     100.38088131      10.92000031       0.00000000  F
Cu     106.81555319       9.10000026       3.86080313  F
Cu     108.10248756      10.92000031       5.14773750  F
Cu     105.52861881      10.92000031       2.57386875  F
Cu     106.81555319      12.74000037       3.86080313  F
Cu     102.95475006      10.92000031       0.00000000  F
Cu     109.38942146       9.10000026       3.86080313  F
Cu     110.67635632      10.92000031       5.14773750  F
Cu     106.81555319       9.10000026       1.28693438  F
Cu     108.10248756      10.92000031       2.57386875  F
Cu     109.38942146      12.74000037       3.86080313  F
Cu     105.52861881      10.92000031       0.00000000  F
Cu     106.81555319      12.74000037       1.28693438  F
Cu     111.96329021       9.10000026       3.86080313  F
Cu     113.25022507      10.92000031       5.14773750  F
Cu     109.38942146       9.10000026       1.28693438  F
Cu     110.67635632      10.92000031       2.57386875  F
Cu     111.96329021      12.74000037       3.86080313  F
Cu     108.10248756      10.92000031       0.00000000  F
Cu     109.38942146      12.74000037       1.28693438  F
Cu     111.96329021       9.10000026       1.28693438  F
Cu     113.25022507      10.92000031       2.57386875  F
Cu     110.67635632      10.92000031       0.00000000  F
Cu     111.96329021      12.74000037       1.28693438  F
Cu     113.25022507      10.92000031       0.00000000  F
Cu     107.04764069      12.78096228       6.63090813  T
Cu     111.65562893      12.78722344       6.67236099  T
O      107.51963365       7.25373226       7.25212868  T
O      111.88662208      10.91299112       6.65427400  T
O      106.89804667      10.88912810       6.65320501  T
Cu     111.72306263       9.01566331       6.62987327  T
Cu     107.04617015       9.01096551       6.64390198  T
O      111.13715119      14.54731507       7.22157004  T
Cu     109.32799403      14.41950999       7.32877900  T
Cu     108.10248756      14.56000042       5.14773750  F
Cu     110.67635632      14.56000042       5.14773750  F
Cu     108.10248756      14.56000042       2.57386875  F
Cu     113.25022507      14.56000042       5.14773750  F
Cu     110.67635632      14.56000042       2.57386875  F
Cu     108.10248756      14.56000042       0.00000000  F
Cu     114.53715944      12.74000037       3.86080313  F
Cu     115.82409382      14.56000042       5.14773750  F
Cu     113.25022507      14.56000042       2.57386875  F
Cu     114.53715944      16.38000047       3.86080313  F
Cu     110.67635632      14.56000042       0.00000000  F
Cu     117.11102772      12.74000037       3.86080313  F
Cu     118.39796257      14.56000042       5.14773750  F
Cu     114.53715944      12.74000037       1.28693438  F
Cu     115.82409382      14.56000042       2.57386875  F
Cu     117.11102772      16.38000047       3.86080313  F
Cu     113.25022507      14.56000042       0.00000000  F
Cu     114.53715944      16.38000047       1.28693438  F
Cu     119.68489647      12.74000037       3.86080313  F
Cu     120.97183132      14.56000042       5.14773750  F
Cu     117.11102772      12.74000037       1.28693438  F
Cu     118.39796257      14.56000042       2.57386875  F
Cu     119.68489647      16.38000047       3.86080313  F
Cu     115.82409382      14.56000042       0.00000000  F
Cu     117.11102772      16.38000047       1.28693438  F
Cu     119.68489647      12.74000037       1.28693438  F
Cu     120.97183132      14.56000042       2.57386875  F
Cu     118.39796257      14.56000042       0.00000000  F
Cu     119.68489647      16.38000047       1.28693438  F
Cu     120.97183132      14.56000042       0.00000000  F
Cu     114.76924695      16.42096238       6.63090813  T
Cu     119.37723518      16.42722354       6.67236099  T
O      115.24123991      10.89373237       7.25212868  T
O      119.60822833      14.55299123       6.65427400  T
O      114.61965292      14.52912821       6.65320501  T
Cu     119.44466889      12.65566341       6.62987327  T
Cu     114.76777640      12.65096561       6.64390198  T
O      118.85875745      18.18731518       7.22157004  T
Cu     117.04960028      18.05951010       7.32877900  T
Cu      46.32963753     -21.84000063       5.14773750  F
Cu      48.90350628     -21.84000063       5.14773750  F
Cu      46.32963753     -21.84000063       2.57386875  F
Cu      51.47737503     -21.84000063       5.14773750  F
Cu      48.90350628     -21.84000063       2.57386875  F
Cu      46.32963753     -21.84000063       0.00000000  F
Cu      52.76430941     -23.66000068       3.86080313  F
Cu      54.05124378     -21.84000063       5.14773750  F
Cu      51.47737503     -21.84000063       2.57386875  F
Cu      52.76430941     -20.02000058       3.86080313  F
Cu      48.90350628     -21.84000063       0.00000000  F
Cu      55.33817768     -23.66000068       3.86080313  F
Cu      56.62511253     -21.84000063       5.14773750  F
Cu      52.76430941     -23.66000068       1.28693438  F
Cu      54.05124378     -21.84000063       2.57386875  F
Cu      55.33817768     -20.02000058       3.86080313  F
Cu      51.47737503     -21.84000063       0.00000000  F
Cu      52.76430941     -20.02000058       1.28693438  F
Cu      57.91204643     -23.66000068       3.86080313  F
Cu      59.19898129     -21.84000063       5.14773750  F
Cu      55.33817768     -23.66000068       1.28693438  F
Cu      56.62511253     -21.84000063       2.57386875  F
Cu      57.91204643     -20.02000058       3.86080313  F
Cu      54.05124378     -21.84000063       0.00000000  F
Cu      55.33817768     -20.02000058       1.28693438  F
Cu      57.91204643     -23.66000068       1.28693438  F
Cu      59.19898129     -21.84000063       2.57386875  F
Cu      56.62511253     -21.84000063       0.00000000  F
Cu      57.91204643     -20.02000058       1.28693438  F
Cu      59.19898129     -21.84000063       0.00000000  F
Cu      52.99639691     -19.97903867       6.63090813  T
Cu      57.60438515     -19.97277751       6.67236099  T
O       53.46838987     -25.50626868       7.25212868  T
O       57.83537830     -21.84700982       6.65427400  T
O       52.84680289     -21.87087284       6.65320501  T
Cu      57.67181885     -23.74433764       6.62987327  T
Cu      52.99492636     -23.74903543       6.64390198  T
O       57.08590741     -18.21268587       7.22157004  T
Cu      55.27675025     -18.34049095       7.32877900  T
Cu      54.05124378     -18.20000052       5.14773750  F
Cu      56.62511253     -18.20000052       5.14773750  F
Cu      54.05124378     -18.20000052       2.57386875  F
Cu      59.19898129     -18.20000052       5.14773750  F
Cu      56.62511253     -18.20000052       2.57386875  F
Cu      54.05124378     -18.20000052       0.00000000  F
Cu      60.48591566     -20.02000058       3.86080313  F
Cu      61.77285004     -18.20000052       5.14773750  F
Cu      59.19898129     -18.20000052       2.57386875  F
Cu      60.48591566     -16.38000047       3.86080313  F
Cu      56.62511253     -18.20000052       0.00000000  F
Cu      63.05978394     -20.02000058       3.86080313  F
Cu      64.34671879     -18.20000052       5.14773750  F
Cu      60.48591566     -20.02000058       1.28693438  F
Cu      61.77285004     -18.20000052       2.57386875  F
Cu      63.05978394     -16.38000047       3.86080313  F
Cu      59.19898129     -18.20000052       0.00000000  F
Cu      60.48591566     -16.38000047       1.28693438  F
Cu      65.63365269     -20.02000058       3.86080313  F
Cu      66.92058754     -18.20000052       5.14773750  F
Cu      63.05978394     -20.02000058       1.28693438  F
Cu      64.34671879     -18.20000052       2.57386875  F
Cu      65.63365269     -16.38000047       3.86080313  F
Cu      61.77285004     -18.20000052       0.00000000  F
Cu      63.05978394     -16.38000047       1.28693438  F
Cu      65.63365269     -20.02000058       1.28693438  F
Cu      66.92058754     -18.20000052       2.57386875  F
Cu      64.34671879     -18.20000052       0.00000000  F
Cu      65.63365269     -16.38000047       1.28693438  F
Cu      66.92058754     -18.20000052       0.00000000  F
Cu      60.71800317     -16.33903856       6.63090813  T
Cu      65.32599140     -16.33277740       6.67236099  T
O       61.18999613     -21.86626858       7.25212868  T
O       65.55698455     -18.20700972       6.65427400  T
O       60.56840914     -18.23087273       6.65320501  T
Cu      65.39342511     -20.10433753       6.62987327  T
Cu      60.71653262     -20.10903533       6.64390198  T
O       64.80751367     -14.57268577       7.22157004  T
Cu      62.99835650     -14.70049085       7.32877900  T
Cu      61.77285004     -14.56000042       5.14773750  F
Cu      64.34671879     -14.56000042       5.14773750  F
Cu      61.77285004     -14.56000042       2.57386875  F
Cu      66.92058754     -14.56000042       5.14773750  F
Cu      64.34671879     -14.56000042       2.57386875  F
Cu      61.77285004     -14.56000042       0.00000000  F
Cu      68.20752192     -16.38000047       3.86080313  F
Cu      69.49445629     -14.56000042       5.14773750  F
Cu      66.92058754     -14.56000042       2.57386875  F
Cu      68.20752192     -12.74000037       3.86080313  F
Cu      64.34671879     -14.56000042       0.00000000  F
Cu      70.78139019     -16.38000047       3.86080313  F
Cu      72.06832504     -14.56000042       5.14773750  F
Cu      68.20752192     -16.38000047       1.28693438  F
Cu      69.49445629     -14.56000042       2.57386875  F
Cu      70.78139019     -12.74000037       3.86080313  F
Cu      66.92058754     -14.56000042       0.00000000  F
Cu      68.20752192     -12.74000037       1.28693438  F
Cu      73.35525894     -16.38000047       3.86080313  F
Cu      74.64219379     -14.56000042       5.14773750  F
Cu      70.78139019     -16.38000047       1.28693438  F
Cu      72.06832504     -14.56000042       2.57386875  F
Cu      73.35525894     -12.74000037       3.86080313  F
Cu      69.49445629     -14.56000042       0.00000000  F
Cu      70.78139019     -12.74000037       1.28693438  F
Cu      73.35525894     -16.38000047       1.28693438  F
Cu      74.64219379     -14.56000042       2.57386875  F
Cu      72.06832504     -14.56000042       0.00000000  F
Cu      73.35525894     -12.74000037       1.28693438  F
Cu      74.64219379     -14.56000042       0.00000000  F
Cu      68.43960942     -12.69903846       6.63090813  T
Cu      73.04759766     -12.69277730       6.67236099  T
O       68.91160238     -18.22626847       7.25212868  T
O       73.27859080     -14.56700961       6.65427400  T
O       68.29001540     -14.59087263       6.65320501  T
Cu      73.11503136     -16.46433743       6.62987327  T
Cu      68.43813887     -16.46903522       6.64390198  T
O       72.52911992     -10.93268566       7.22157004  T
Cu      70.71996276     -11.06049074       7.32877900  T
Cu      69.49445629     -10.92000031       5.14773750  F
Cu      72.06832504     -10.92000031       5.14773750  F
Cu      69.49445629     -10.92000031       2.57386875  F
Cu      74.64219379     -10.92000031       5.14773750  F
Cu      72.06832504     -10.92000031       2.57386875  F
Cu      69.49445629     -10.92000031       0.00000000  F
Cu      75.92912817     -12.74000037       3.86080313  F
Cu      77.21606255     -10.92000031       5.14773750  F
Cu      74.64219379     -10.92000031       2.57386875  F
Cu      75.92912817      -9.10000026       3.86080313  F
Cu      72.06832504     -10.92000031       0.00000000  F
Cu      78.50299644     -12.74000037       3.86080313  F
Cu      79.78993130     -10.92000031       5.14773750  F
Cu      75.92912817     -12.74000037       1.28693438  F
Cu      77.21606255     -10.92000031       2.57386875  F
Cu      78.50299644      -9.10000026       3.86080313  F
Cu      74.64219379     -10.92000031       0.00000000  F
Cu      75.92912817      -9.10000026       1.28693438  F
Cu      81.07686520     -12.74000037       3.86080313  F
Cu      82.36380005     -10.92000031       5.14773750  F
Cu      78.50299644     -12.74000037       1.28693438  F
Cu      79.78993130     -10.92000031       2.57386875  F
Cu      81.07686520      -9.10000026       3.86080313  F
Cu      77.21606255     -10.92000031       0.00000000  F
Cu      78.50299644      -9.10000026       1.28693438  F
Cu      81.07686520     -12.74000037       1.28693438  F
Cu      82.36380005     -10.92000031       2.57386875  F
Cu      79.78993130     -10.92000031       0.00000000  F
Cu      81.07686520      -9.10000026       1.28693438  F
Cu      82.36380005     -10.92000031       0.00000000  F
Cu      76.16121568      -9.05903835       6.63090813  T
Cu      80.76920391      -9.05277719       6.67236099  T
O       76.63320863     -14.58626837       7.25212868  T
O       81.00019706     -10.92700951       6.65427400  T
O       76.01162165     -10.95087252       6.65320501  T
Cu      80.83663762     -12.82433732       6.62987327  T
Cu      76.15974513     -12.82903512       6.64390198  T
O       80.25072617      -7.29268556       7.22157004  T
Cu      78.44156901      -7.42049064       7.32877900  T
Cu      77.21606255      -7.28000021       5.14773750  F
Cu      79.78993130      -7.28000021       5.14773750  F
Cu      77.21606255      -7.28000021       2.57386875  F
Cu      82.36380005      -7.28000021       5.14773750  F
Cu      79.78993130      -7.28000021       2.57386875  F
Cu      77.21606255      -7.28000021       0.00000000  F
Cu      83.65073442      -9.10000026       3.86080313  F
Cu      84.93766880      -7.28000021       5.14773750  F
Cu      82.36380005      -7.28000021       2.57386875  F
Cu      83.65073442      -5.46000016       3.86080313  F
Cu      79.78993130      -7.28000021       0.00000000  F
Cu      86.22460270      -9.10000026       3.86080313  F
Cu      87.51153755      -7.28000021       5.14773750  F
Cu      83.65073442      -9.10000026       1.28693438  F
Cu      84.93766880      -7.28000021       2.57386875  F
Cu      86.22460270      -5.46000016       3.86080313  F
Cu      82.36380005      -7.28000021       0.00000000  F
Cu      83.65073442      -5.46000016       1.28693438  F
Cu      88.79847145      -9.10000026       3.86080313  F
Cu      90.08540630      -7.28000021       5.14773750  F
Cu      86.22460270      -9.10000026       1.28693438  F
Cu      87.51153755      -7.28000021       2.57386875  F
Cu      88.79847145      -5.46000016       3.86080313  F
Cu      84.93766880      -7.28000021       0.00000000  F
Cu      86.22460270      -5.46000016       1.28693438  F
Cu      88.79847145      -9.10000026       1.28693438  F
Cu      90.08540630      -7.28000021       2.57386875  F
Cu      87.51153755      -7.28000021       0.00000000  F
Cu      88.79847145      -5.46000016       1.28693438  F
Cu      90.08540630      -7.28000021       0.00000000  F
Cu      83.88282193      -5.41903825       6.63090813  T
Cu      88.49081017      -5.41277709       6.67236099  T
O       84.35481489     -10.94626826       7.25212868  T
O       88.72180331      -7.28700940       6.65427400  T
O       83.73322791      -7.31087242       6.65320501  T
Cu      88.55824387      -9.18433722       6.62987327  T
Cu      83.88135138      -9.18903501       6.64390198  T
O       87.97233243      -3.65268545       7.22157004  T
Cu      86.16317527      -3.78049053       7.32877900  T
Cu      84.93766880      -3.64000010       5.14773750  F
Cu      87.51153755      -3.64000010       5.14773750  F
Cu      84.93766880      -3.64000010       2.57386875  F
Cu      90.08540630      -3.64000010       5.14773750  F
Cu      87.51153755      -3.64000010       2.57386875  F
Cu      84.93766880      -3.64000010       0.00000000  F
Cu      91.37234068      -5.46000016       3.86080313  F
Cu      92.65927505      -3.64000010       5.14773750  F
Cu      90.08540630      -3.64000010       2.57386875  F
Cu      91.37234068      -1.82000005       3.86080313  F
Cu      87.51153755      -3.64000010       0.00000000  F
Cu      93.94620895      -5.46000016       3.86080313  F
Cu      95.23314381      -3.64000010       5.14773750  F
Cu      91.37234068      -5.46000016       1.28693438  F
Cu      92.65927505      -3.64000010       2.57386875  F
Cu      93.94620895      -1.82000005       3.86080313  F
Cu      90.08540630      -3.64000010       0.00000000  F
Cu      91.37234068      -1.82000005       1.28693438  F
Cu      96.52007771      -5.46000016       3.86080313  F
Cu      97.80701256      -3.64000010       5.14773750  F
Cu      93.94620895      -5.46000016       1.28693438  F
Cu      95.23314381      -3.64000010       2.57386875  F
Cu      96.52007771      -1.82000005       3.86080313  F
Cu      92.65927505      -3.64000010       0.00000000  F
Cu      93.94620895      -1.82000005       1.28693438  F
Cu      96.52007771      -5.46000016       1.28693438  F
Cu      97.80701256      -3.64000010       2.57386875  F
Cu      95.23314381      -3.64000010       0.00000000  F
Cu      96.52007771      -1.82000005       1.28693438  F
Cu      97.80701256      -3.64000010       0.00000000  F
Cu      91.60442818      -1.77903814       6.63090813  T
Cu      96.21241642      -1.77277698       6.67236099  T
O       92.07642114      -7.30626816       7.25212868  T
O       96.44340957      -3.64700930       6.65427400  T
O       91.45483416      -3.67087232       6.65320501  T
Cu      96.27985013      -5.54433711       6.62987327  T
Cu      91.60295764      -5.54903491       6.64390198  T
O       95.69393868      -0.01268535       7.22157004  T
Cu      93.88478152      -0.14049043       7.32877900  T
Cu      92.65927505       0.00000000       5.14773750  F
Cu      95.23314381       0.00000000       5.14773750  F
Cu      92.65927505       0.00000000       2.57386875  F
Cu      97.80701256       0.00000000       5.14773750  F
Cu      95.23314381       0.00000000       2.57386875  F
Cu      92.65927505       0.00000000       0.00000000  F
Cu      99.09394693      -1.82000005       3.86080313  F
Cu     100.38088131       0.00000000       5.14773750  F
Cu      97.80701256       0.00000000       2.57386875  F
Cu      99.09394693       1.82000005       3.86080313  F
Cu      95.23314381       0.00000000       0.00000000  F
Cu     101.66781521      -1.82000005       3.86080313  F
Cu     102.95475006       0.00000000       5.14773750  F
Cu      99.09394693      -1.82000005       1.28693438  F
Cu     100.38088131       0.00000000       2.57386875  F
Cu     101.66781521       1.82000005       3.86080313  F
Cu      97.80701256       0.00000000       0.00000000  F
Cu      99.09394693       1.82000005       1.28693438  F
Cu     104.24168396      -1.82000005       3.86080313  F
Cu     105.52861881       0.00000000       5.14773750  F
Cu     101.66781521      -1.82000005       1.28693438  F
Cu     102.95475006       0.00000000       2.57386875  F
Cu     104.24168396       1.82000005       3.86080313  F
Cu     100.38088131       0.00000000       0.00000000  F
Cu     101.66781521       1.82000005       1.28693438  F
Cu     104.24168396      -1.82000005       1.28693438  F
Cu     105.52861881       0.00000000       2.57386875  F
Cu     102.95475006       0.00000000       0.00000000  F
Cu     104.24168396       1.82000005       1.28693438  F
Cu     105.52861881       0.00000000       0.00000000  F
Cu      99.32603444       1.86096196       6.63090813  T
Cu     103.93402268       1.86722312       6.67236099  T
O       99.79802740      -3.66626805       7.25212868  T
O      104.16501582      -0.00700919       6.65427400  T
O       99.17644041      -0.03087221       6.65320501  T
Cu     104.00145638      -1.90433701       6.62987327  T
Cu      99.32456389      -1.90903480       6.64390198  T
O      103.41554494       3.62731476       7.22157004  T
Cu     101.60638778       3.49950968       7.32877900  T
Cu     100.38088131       3.64000010       5.14773750  F
Cu     102.95475006       3.64000010       5.14773750  F
Cu     100.38088131       3.64000010       2.57386875  F
Cu     105.52861881       3.64000010       5.14773750  F
Cu     102.95475006       3.64000010       2.57386875  F
Cu     100.38088131       3.64000010       0.00000000  F
Cu     106.81555319       1.82000005       3.86080313  F
Cu     108.10248756       3.64000010       5.14773750  F
Cu     105.52861881       3.64000010       2.57386875  F
Cu     106.81555319       5.46000016       3.86080313  F
Cu     102.95475006       3.64000010       0.00000000  F
Cu     109.38942146       1.82000005       3.86080313  F
Cu     110.67635632       3.64000010       5.14773750  F
Cu     106.81555319       1.82000005       1.28693438  F
Cu     108.10248756       3.64000010       2.57386875  F
Cu     109.38942146       5.46000016       3.86080313  F
Cu     105.52861881       3.64000010       0.00000000  F
Cu     106.81555319       5.46000016       1.28693438  F
Cu     111.96329021       1.82000005       3.86080313  F
Cu     113.25022507       3.64000010       5.14773750  F
Cu     109.38942146       1.82000005       1.28693438  F
Cu     110.67635632       3.64000010       2.57386875  F
Cu     111.96329021       5.46000016       3.86080313  F
Cu     108.10248756       3.64000010       0.00000000  F
Cu     109.38942146       5.46000016       1.28693438  F
Cu     111.96329021       1.82000005       1.28693438  F
Cu     113.25022507       3.64000010       2.57386875  F
Cu     110.67635632       3.64000010       0.00000000  F
Cu     111.96329021       5.46000016       1.28693438  F
Cu     113.25022507       3.64000010       0.00000000  F
Cu     107.04764069       5.50096207       6.63090813  T
Cu     111.65562893       5.50722323       6.67236099  T
O      107.51963365      -0.02626795       7.25212868  T
O      111.88662208       3.63299091       6.65427400  T
O      106.89804667       3.60912789       6.65320501  T
Cu     111.72306263       1.73566310       6.62987327  T
Cu     107.04617015       1.73096530       6.64390198  T
O      111.13715119       7.26731486       7.22157004  T
Cu     109.32799403       7.13950978       7.32877900  T
Cu     108.10248756       7.28000021       5.14773750  F
Cu     110.67635632       7.28000021       5.14773750  F
Cu     108.10248756       7.28000021       2.57386875  F
Cu     113.25022507       7.28000021       5.14773750  F
Cu     110.67635632       7.28000021       2.57386875  F
Cu     108.10248756       7.28000021       0.00000000  F
Cu     114.53715944       5.46000016       3.86080313  F
Cu     115.82409382       7.28000021       5.14773750  F
Cu     113.25022507       7.28000021       2.57386875  F
Cu     114.53715944       9.10000026       3.86080313  F
Cu     110.67635632       7.28000021       0.00000000  F
Cu     117.11102772       5.46000016       3.86080313  F
Cu     118.39796257       7.28000021       5.14773750  F
Cu     114.53715944       5.46000016       1.28693438  F
Cu     115.82409382       7.28000021       2.57386875  F
Cu     117.11102772       9.10000026       3.86080313  F
Cu     113.25022507       7.28000021       0.00000000  F
Cu     114.53715944       9.10000026       1.28693438  F
Cu     119.68489647       5.46000016       3.86080313  F
Cu     120.97183132       7.28000021       5.14773750  F
Cu     117.11102772       5.46000016       1.28693438  F
Cu     118.39796257       7.28000021       2.57386875  F
Cu     119.68489647       9.10000026       3.86080313  F
Cu     115.82409382       7.28000021       0.00000000  F
Cu     117.11102772       9.10000026       1.28693438  F
Cu     119.68489647       5.46000016       1.28693438  F
Cu     120.97183132       7.28000021       2.57386875  F
Cu     118.39796257       7.28000021       0.00000000  F
Cu     119.68489647       9.10000026       1.28693438  F
Cu     120.97183132       7.28000021       0.00000000  F
Cu     114.76924695       9.14096217       6.63090813  T
Cu     119.37723518       9.14722333       6.67236099  T
O      115.24123991       3.61373216       7.25212868  T
O      119.60822833       7.27299102       6.65427400  T
O      114.61965292       7.24912800       6.65320501  T
Cu     119.44466889       5.37566320       6.62987327  T
Cu     114.76777640       5.37096541       6.64390198  T
O      118.85875745      10.90731497       7.22157004  T
Cu     117.04960028      10.77950989       7.32877900  T
Cu     115.82409382      10.92000031       5.14773750  F
Cu     118.39796257      10.92000031       5.14773750  F
Cu     115.82409382      10.92000031       2.57386875  F
Cu     120.97183132      10.92000031       5.14773750  F
Cu     118.39796257      10.92000031       2.57386875  F
Cu     115.82409382      10.92000031       0.00000000  F
Cu     122.25876570       9.10000026       3.86080313  F
Cu     123.54570007      10.92000031       5.14773750  F
Cu     120.97183132      10.92000031       2.57386875  F
Cu     122.25876570      12.74000037       3.86080313  F
Cu     118.39796257      10.92000031       0.00000000  F
Cu     124.83263397       9.10000026       3.86080313  F
Cu     126.11956882      10.92000031       5.14773750  F
Cu     122.25876570       9.10000026       1.28693438  F
Cu     123.54570007      10.92000031       2.57386875  F
Cu     124.83263397      12.74000037       3.86080313  F
Cu     120.97183132      10.92000031       0.00000000  F
Cu     122.25876570      12.74000037       1.28693438  F
Cu     127.40650272       9.10000026       3.86080313  F
Cu     128.69343758      10.92000031       5.14773750  F
Cu     124.83263397       9.10000026       1.28693438  F
Cu     126.11956882      10.92000031       2.57386875  F
Cu     127.40650272      12.74000037       3.86080313  F
Cu     123.54570007      10.92000031       0.00000000  F
Cu     124.83263397      12.74000037       1.28693438  F
Cu     127.40650272       9.10000026       1.28693438  F
Cu     128.69343758      10.92000031       2.57386875  F
Cu     126.11956882      10.92000031       0.00000000  F
Cu     127.40650272      12.74000037       1.28693438  F
Cu     128.69343758      10.92000031       0.00000000  F
Cu     122.49085320      12.78096228       6.63090813  T
Cu     127.09884144      12.78722344       6.67236099  T
O      122.96284616       7.25373226       7.25212868  T
O      127.32983459      10.91299112       6.65427400  T
O      122.34125918      10.88912810       6.65320501  T
Cu     127.16627514       9.01566331       6.62987327  T
Cu     122.48938266       9.01096551       6.64390198  T
O      126.58036370      14.54731507       7.22157004  T
Cu     124.77120654      14.41950999       7.32877900  T
Cu      54.05124378     -25.48000073       5.14773750  F
Cu      56.62511253     -25.48000073       5.14773750  F
Cu      54.05124378     -25.48000073       2.57386875  F
Cu      59.19898129     -25.48000073       5.14773750  F
Cu      56.62511253     -25.48000073       2.57386875  F
Cu      54.05124378     -25.48000073       0.00000000  F
Cu      60.48591566     -27.30000079       3.86080313  F
Cu      61.77285004     -25.48000073       5.14773750  F
Cu      59.19898129     -25.48000073       2.57386875  F
Cu      60.48591566     -23.66000068       3.86080313  F
Cu      56.62511253     -25.48000073       0.00000000  F
Cu      63.05978394     -27.30000079       3.86080313  F
Cu      64.34671879     -25.48000073       5.14773750  F
Cu      60.48591566     -27.30000079       1.28693438  F
Cu      61.77285004     -25.48000073       2.57386875  F
Cu      63.05978394     -23.66000068       3.86080313  F
Cu      59.19898129     -25.48000073       0.00000000  F
Cu      60.48591566     -23.66000068       1.28693438  F
Cu      65.63365269     -27.30000079       3.86080313  F
Cu      66.92058754     -25.48000073       5.14773750  F
Cu      63.05978394     -27.30000079       1.28693438  F
Cu      64.34671879     -25.48000073       2.57386875  F
Cu      65.63365269     -23.66000068       3.86080313  F
Cu      61.77285004     -25.48000073       0.00000000  F
Cu      63.05978394     -23.66000068       1.28693438  F
Cu      65.63365269     -27.30000079       1.28693438  F
Cu      66.92058754     -25.48000073       2.57386875  F
Cu      64.34671879     -25.48000073       0.00000000  F
Cu      65.63365269     -23.66000068       1.28693438  F
Cu      66.92058754     -25.48000073       0.00000000  F
Cu      60.71800317     -23.61903877       6.63090813  T
Cu      65.32599140     -23.61277761       6.67236099  T
O       61.18999613     -29.14626879       7.25212868  T
O       65.55698455     -25.48700993       6.65427400  T
O       60.56840914     -25.51087294       6.65320501  T
Cu      65.39342511     -27.38433774       6.62987327  T
Cu      60.71653262     -27.38903554       6.64390198  T
O       64.80751367     -21.85268598       7.22157004  T
Cu      62.99835650     -21.98049106       7.32877900  T
Cu      61.77285004     -21.84000063       5.14773750  F
Cu      64.34671879     -21.84000063       5.14773750  F
Cu      61.77285004     -21.84000063       2.57386875  F
Cu      66.92058754     -21.84000063       5.14773750  F
Cu      64.34671879     -21.84000063       2.57386875  F
Cu      61.77285004     -21.84000063       0.00000000  F
Cu      68.20752192     -23.66000068       3.86080313  F
Cu      69.49445629     -21.84000063       5.14773750  F
Cu      66.92058754     -21.84000063       2.57386875  F
Cu      68.20752192     -20.02000058       3.86080313  F
Cu      64.34671879     -21.84000063       0.00000000  F
Cu      70.78139019     -23.66000068       3.86080313  F
Cu      72.06832504     -21.84000063       5.14773750  F
Cu      68.20752192     -23.66000068       1.28693438  F
Cu      69.49445629     -21.84000063       2.57386875  F
Cu      70.78139019     -20.02000058       3.86080313  F
Cu      66.92058754     -21.84000063       0.00000000  F
Cu      68.20752192     -20.02000058       1.28693438  F
Cu      73.35525894     -23.66000068       3.86080313  F
Cu      74.64219379     -21.84000063       5.14773750  F
Cu      70.78139019     -23.66000068       1.28693438  F
Cu      72.06832504     -21.84000063       2.57386875  F
Cu      73.35525894     -20.02000058       3.86080313  F
Cu      69.49445629     -21.84000063       0.00000000  F
Cu      70.78139019     -20.02000058       1.28693438  F
Cu      73.35525894     -23.66000068       1.28693438  F
Cu      74.64219379     -21.84000063       2.57386875  F
Cu      72.06832504     -21.84000063       0.00000000  F
Cu      73.35525894     -20.02000058       1.28693438  F
Cu      74.64219379     -21.84000063       0.00000000  F
Cu      68.43960942     -19.97903867       6.63090813  T
Cu      73.04759766     -19.97277751       6.67236099  T
O       68.91160238     -25.50626868       7.25212868  T
O       73.27859080     -21.84700982       6.65427400  T
O       68.29001540     -21.87087284       6.65320501  T
Cu      73.11503136     -23.74433764       6.62987327  T
Cu      68.43813887     -23.74903543       6.64390198  T
O       72.52911992     -18.21268587       7.22157004  T
Cu      70.71996276     -18.34049095       7.32877900  T
Cu      69.49445629     -18.20000052       5.14773750  F
Cu      72.06832504     -18.20000052       5.14773750  F
Cu      69.49445629     -18.20000052       2.57386875  F
Cu      74.64219379     -18.20000052       5.14773750  F
Cu      72.06832504     -18.20000052       2.57386875  F
Cu      69.49445629     -18.20000052       0.00000000  F
Cu      75.92912817     -20.02000058       3.86080313  F
Cu      77.21606255     -18.20000052       5.14773750  F
Cu      74.64219379     -18.20000052       2.57386875  F
Cu      75.92912817     -16.38000047       3.86080313  F
Cu      72.06832504     -18.20000052       0.00000000  F
Cu      78.50299644     -20.02000058       3.86080313  F
Cu      79.78993130     -18.20000052       5.14773750  F
Cu      75.92912817     -20.02000058       1.28693438  F
Cu      77.21606255     -18.20000052       2.57386875  F
Cu      78.50299644     -16.38000047       3.86080313  F
Cu      74.64219379     -18.20000052       0.00000000  F
Cu      75.92912817     -16.38000047       1.28693438  F
Cu      81.07686520     -20.02000058       3.86080313  F
Cu      82.36380005     -18.20000052       5.14773750  F
Cu      78.50299644     -20.02000058       1.28693438  F
Cu      79.78993130     -18.20000052       2.57386875  F
Cu      81.07686520     -16.38000047       3.86080313  F
Cu      77.21606255     -18.20000052       0.00000000  F
Cu      78.50299644     -16.38000047       1.28693438  F
Cu      81.07686520     -20.02000058       1.28693438  F
Cu      82.36380005     -18.20000052       2.57386875  F
Cu      79.78993130     -18.20000052       0.00000000  F
Cu      81.07686520     -16.38000047       1.28693438  F
Cu      82.36380005     -18.20000052       0.00000000  F
Cu      76.16121568     -16.33903856       6.63090813  T
Cu      80.76920391     -16.33277740       6.67236099  T
O       76.63320863     -21.86626858       7.25212868  T
O       81.00019706     -18.20700972       6.65427400  T
O       76.01162165     -18.23087273       6.65320501  T
Cu      80.83663762     -20.10433753       6.62987327  T
Cu      76.15974513     -20.10903533       6.64390198  T
O       80.25072617     -14.57268577       7.22157004  T
Cu      78.44156901     -14.70049085       7.32877900  T
Cu      77.21606255     -14.56000042       5.14773750  F
Cu      79.78993130     -14.56000042       5.14773750  F
Cu      77.21606255     -14.56000042       2.57386875  F
Cu      82.36380005     -14.56000042       5.14773750  F
Cu      79.78993130     -14.56000042       2.57386875  F
Cu      77.21606255     -14.56000042       0.00000000  F
Cu      83.65073442     -16.38000047       3.86080313  F
Cu      84.93766880     -14.56000042       5.14773750  F
Cu      82.36380005     -14.56000042       2.57386875  F
Cu      83.65073442     -12.74000037       3.86080313  F
Cu      79.78993130     -14.56000042       0.00000000  F
Cu      86.22460270     -16.38000047       3.86080313  F
Cu      87.51153755     -14.56000042       5.14773750  F
Cu      83.65073442     -16.38000047       1.28693438  F
Cu      84.93766880     -14.56000042       2.57386875  F
Cu      86.22460270     -12.74000037       3.86080313  F
Cu      82.36380005     -14.56000042       0.00000000  F
Cu      83.65073442     -12.74000037       1.28693438  F
Cu      88.79847145     -16.38000047       3.86080313  F
Cu      90.08540630     -14.56000042       5.14773750  F
Cu      86.22460270     -16.38000047       1.28693438  F
Cu      87.51153755     -14.56000042       2.57386875  F
Cu      88.79847145     -12.74000037       3.86080313  F
Cu      84.93766880     -14.56000042       0.00000000  F
Cu      86.22460270     -12.74000037       1.28693438  F
Cu      88.79847145     -16.38000047       1.28693438  F
Cu      90.08540630     -14.56000042       2.57386875  F
Cu      87.51153755     -14.56000042       0.00000000  F
Cu      88.79847145     -12.74000037       1.28693438  F
Cu      90.08540630     -14.56000042       0.00000000  F
Cu      83.88282193     -12.69903846       6.63090813  T
Cu      88.49081017     -12.69277730       6.67236099  T
O       84.35481489     -18.22626847       7.25212868  T
O       88.72180331     -14.56700961       6.65427400  T
O       83.73322791     -14.59087263       6.65320501  T
Cu      88.55824387     -16.46433743       6.62987327  T
Cu      83.88135138     -16.46903522       6.64390198  T
O       87.97233243     -10.93268566       7.22157004  T
Cu      86.16317527     -11.06049074       7.32877900  T
Cu      84.93766880     -10.92000031       5.14773750  F
Cu      87.51153755     -10.92000031       5.14773750  F
Cu      84.93766880     -10.92000031       2.57386875  F
Cu      90.08540630     -10.92000031       5.14773750  F
Cu      87.51153755     -10.92000031       2.57386875  F
Cu      84.93766880     -10.92000031       0.00000000  F
Cu      91.37234068     -12.74000037       3.86080313  F
Cu      92.65927505     -10.92000031       5.14773750  F
Cu      90.08540630     -10.92000031       2.57386875  F
Cu      91.37234068      -9.10000026       3.86080313  F
Cu      87.51153755     -10.92000031       0.00000000  F
Cu      93.94620895     -12.74000037       3.86080313  F
Cu      95.23314381     -10.92000031       5.14773750  F
Cu      91.37234068     -12.74000037       1.28693438  F
Cu      92.65927505     -10.92000031       2.57386875  F
Cu      93.94620895      -9.10000026       3.86080313  F
Cu      90.08540630     -10.92000031       0.00000000  F
Cu      91.37234068      -9.10000026       1.28693438  F
Cu      96.52007771     -12.74000037       3.86080313  F
Cu      97.80701256     -10.92000031       5.14773750  F
Cu      93.94620895     -12.74000037       1.28693438  F
Cu      95.23314381     -10.92000031       2.57386875  F
Cu      96.52007771      -9.10000026       3.86080313  F
Cu      92.65927505     -10.92000031       0.00000000  F
Cu      93.94620895      -9.10000026       1.28693438  F
Cu      96.52007771     -12.74000037       1.28693438  F
Cu      97.80701256     -10.92000031       2.57386875  F
Cu      95.23314381     -10.92000031       0.00000000  F
Cu      96.52007771      -9.10000026       1.28693438  F
Cu      97.80701256     -10.92000031       0.00000000  F
Cu      91.60442818      -9.05903835       6.63090813  T
Cu      96.21241642      -9.05277719       6.67236099  T
O       92.07642114     -14.58626837       7.25212868  T
O       96.44340957     -10.92700951       6.65427400  T
O       91.45483416     -10.95087252       6.65320501  T
Cu      96.27985013     -12.82433732       6.62987327  T
Cu      91.60295764     -12.82903512       6.64390198  T
O       95.69393868      -7.29268556       7.22157004  T
Cu      93.88478152      -7.42049064       7.32877900  T
Cu      92.65927505      -7.28000021       5.14773750  F
Cu      95.23314381      -7.28000021       5.14773750  F
Cu      92.65927505      -7.28000021       2.57386875  F
Cu      97.80701256      -7.28000021       5.14773750  F
Cu      95.23314381      -7.28000021       2.57386875  F
Cu      92.65927505      -7.28000021       0.00000000  F
Cu      99.09394693      -9.10000026       3.86080313  F
Cu     100.38088131      -7.28000021       5.14773750  F
Cu      97.80701256      -7.28000021       2.57386875  F
Cu      99.09394693      -5.46000016       3.86080313  F
Cu      95.23314381      -7.28000021       0.00000000  F
Cu     101.66781521      -9.10000026       3.86080313  F
Cu     102.95475006      -7.28000021       5.14773750  F
Cu      99.09394693      -9.10000026       1.28693438  F
Cu     100.38088131      -7.28000021       2.57386875  F
Cu     101.66781521      -5.46000016       3.86080313  F
Cu      97.80701256      -7.28000021       0.00000000  F
Cu      99.09394693      -5.46000016       1.28693438  F
Cu     104.24168396      -9.10000026       3.86080313  F
Cu     105.52861881      -7.28000021       5.14773750  F
Cu     101.66781521      -9.10000026       1.28693438  F
Cu     102.95475006      -7.28000021       2.57386875  F
Cu     104.24168396      -5.46000016       3.86080313  F
Cu     100.38088131      -7.28000021       0.00000000  F
Cu     101.66781521      -5.46000016       1.28693438  F
Cu     104.24168396      -9.10000026       1.28693438  F
Cu     105.52861881      -7.28000021       2.57386875  F
Cu     102.95475006      -7.28000021       0.00000000  F
Cu     104.24168396      -5.46000016       1.28693438  F
Cu     105.52861881      -7.28000021       0.00000000  F
Cu      99.32603444      -5.41903825       6.63090813  T
Cu     103.93402268      -5.41277709       6.67236099  T
O       99.79802740     -10.94626826       7.25212868  T
O      104.16501582      -7.28700940       6.65427400  T
O       99.17644041      -7.31087242       6.65320501  T
Cu     104.00145638      -9.18433722       6.62987327  T
Cu      99.32456389      -9.18903501       6.64390198  T
O      103.41554494      -3.65268545       7.22157004  T
Cu     101.60638778      -3.78049053       7.32877900  T
Cu     100.38088131      -3.64000010       5.14773750  F
Cu     102.95475006      -3.64000010       5.14773750  F
Cu     100.38088131      -3.64000010       2.57386875  F
Cu     105.52861881      -3.64000010       5.14773750  F
Cu     102.95475006      -3.64000010       2.57386875  F
Cu     100.38088131      -3.64000010       0.00000000  F
Cu     106.81555319      -5.46000016       3.86080313  F
Cu     108.10248756      -3.64000010       5.14773750  F
Cu     105.52861881      -3.64000010       2.57386875  F
Cu     106.81555319      -1.82000005       3.86080313  F
Cu     102.95475006      -3.64000010       0.00000000  F
Cu     109.38942146      -5.46000016       3.86080313  F
Cu     110.67635632      -3.64000010       5.14773750  F
Cu     106.81555319      -5.46000016       1.28693438  F
Cu     108.10248756      -3.64000010       2.57386875  F
Cu     109.38942146      -1.82000005       3.86080313  F
Cu     105.52861881      -3.64000010       0.00000000  F
Cu     106.81555319      -1.82000005       1.28693438  F
Cu     111.96329021      -5.46000016       3.86080313  F
Cu     113.25022507      -3.64000010       5.14773750  F
Cu     109.38942146      -5.46000016       1.28693438  F
Cu     110.67635632      -3.64000010       2.57386875  F
Cu     111.96329021      -1.82000005       3.86080313  F
Cu     108.10248756      -3.64000010       0.00000000  F
Cu     109.38942146      -1.82000005       1.28693438  F
Cu     111.96329021      -5.46000016       1.28693438  F
Cu     113.25022507      -3.64000010       2.57386875  F
Cu     110.67635632      -3.64000010       0.00000000  F
Cu     111.96329021      -1.82000005       1.28693438  F
Cu     113.25022507      -3.64000010       0.00000000  F
Cu     107.04764069      -1.77903814       6.63090813  T
Cu     111.65562893      -1.77277698       6.67236099  T
O      107.51963365      -7.30626816       7.25212868  T
O      111.88662208      -3.64700930       6.65427400  T
O      106.89804667      -3.67087232       6.65320501  T
Cu     111.72306263      -5.54433711       6.62987327  T
Cu     107.04617015      -5.54903491       6.64390198  T
O      111.13715119      -0.01268535       7.22157004  T
Cu     109.32799403      -0.14049043       7.32877900  T
Cu     108.10248756       0.00000000       5.14773750  F
Cu     110.67635632       0.00000000       5.14773750  F
Cu     108.10248756       0.00000000       2.57386875  F
Cu     113.25022507       0.00000000       5.14773750  F
Cu     110.67635632       0.00000000       2.57386875  F
Cu     108.10248756       0.00000000       0.00000000  F
Cu     114.53715944      -1.82000005       3.86080313  F
Cu     115.82409382       0.00000000       5.14773750  F
Cu     113.25022507       0.00000000       2.57386875  F
Cu     114.53715944       1.82000005       3.86080313  F
Cu     110.67635632       0.00000000       0.00000000  F
Cu     117.11102772      -1.82000005       3.86080313  F
Cu     118.39796257       0.00000000       5.14773750  F
Cu     114.53715944      -1.82000005       1.28693438  F
Cu     115.82409382       0.00000000       2.57386875  F
Cu     117.11102772       1.82000005       3.86080313  F
Cu     113.25022507       0.00000000       0.00000000  F
Cu     114.53715944       1.82000005       1.28693438  F
Cu     119.68489647      -1.82000005       3.86080313  F
Cu     120.97183132       0.00000000       5.14773750  F
Cu     117.11102772      -1.82000005       1.28693438  F
Cu     118.39796257       0.00000000       2.57386875  F
Cu     119.68489647       1.82000005       3.86080313  F
Cu     115.82409382       0.00000000       0.00000000  F
Cu     117.11102772       1.82000005       1.28693438  F
Cu     119.68489647      -1.82000005       1.28693438  F
Cu     120.97183132       0.00000000       2.57386875  F
Cu     118.39796257       0.00000000       0.00000000  F
Cu     119.68489647       1.82000005       1.28693438  F
Cu     120.97183132       0.00000000       0.00000000  F
Cu     114.76924695       1.86096196       6.63090813  T
Cu     119.37723518       1.86722312       6.67236099  T
O      115.24123991      -3.66626805       7.25212868  T
O      119.60822833      -0.00700919       6.65427400  T
O      114.61965292      -0.03087221       6.65320501  T
Cu     119.44466889      -1.90433701       6.62987327  T
Cu     114.76777640      -1.90903480       6.64390198  T
O      118.85875745       3.62731476       7.22157004  T
Cu     117.04960028       3.49950968       7.32877900  T
Cu     115.82409382       3.64000010       5.14773750  F
Cu     118.39796257       3.64000010       5.14773750  F
Cu     115.82409382       3.64000010       2.57386875  F
Cu     120.97183132       3.64000010       5.14773750  F
Cu     118.39796257       3.64000010       2.57386875  F
Cu     115.82409382       3.64000010       0.00000000  F
Cu     122.25876570       1.82000005       3.86080313  F
Cu     123.54570007       3.64000010       5.14773750  F
Cu     120.97183132       3.64000010       2.57386875  F
Cu     122.25876570       5.46000016       3.86080313  F
Cu     118.39796257       3.64000010       0.00000000  F
Cu     124.83263397       1.82000005       3.86080313  F
Cu     126.11956882       3.64000010       5.14773750  F
Cu     122.25876570       1.82000005       1.28693438  F
Cu     123.54570007       3.64000010       2.57386875  F
Cu     124.83263397       5.46000016       3.86080313  F
Cu     120.97183132       3.64000010       0.00000000  F
Cu     122.25876570       5.46000016       1.28693438  F
Cu     127.40650272       1.82000005       3.86080313  F
Cu     128.69343758       3.64000010       5.14773750  F
Cu     124.83263397       1.82000005       1.28693438  F
Cu     126.11956882       3.64000010       2.57386875  F
Cu     127.40650272       5.46000016       3.86080313  F
Cu     123.54570007       3.64000010       0.00000000  F
Cu     124.83263397       5.46000016       1.28693438  F
Cu     127.40650272       1.82000005       1.28693438  F
Cu     128.69343758       3.64000010       2.57386875  F
Cu     126.11956882       3.64000010       0.00000000  F
Cu     127.40650272       5.46000016       1.28693438  F
Cu     128.69343758       3.64000010       0.00000000  F
Cu     122.49085320       5.50096207       6.63090813  T
Cu     127.09884144       5.50722323       6.67236099  T
O      122.96284616      -0.02626795       7.25212868  T
O      127.32983459       3.63299091       6.65427400  T
O      122.34125918       3.60912789       6.65320501  T
Cu     127.16627514       1.73566310       6.62987327  T
Cu     122.48938266       1.73096530       6.64390198  T
O      126.58036370       7.26731486       7.22157004  T
Cu     124.77120654       7.13950978       7.32877900  T
Cu     123.54570007       7.28000021       5.14773750  F
Cu     126.11956882       7.28000021       5.14773750  F
Cu     123.54570007       7.28000021       2.57386875  F
Cu     128.69343758       7.28000021       5.14773750  F
Cu     126.11956882       7.28000021       2.57386875  F
Cu     123.54570007       7.28000021       0.00000000  F
Cu     129.98037195       5.46000016       3.86080313  F
Cu     131.26730633       7.28000021       5.14773750  F
Cu     128.69343758       7.28000021       2.57386875  F
Cu     129.98037195       9.10000026       3.86080313  F
Cu     126.11956882       7.28000021       0.00000000  F
Cu     132.55424023       5.46000016       3.86080313  F
Cu     133.84117508       7.28000021       5.14773750  F
Cu     129.98037195       5.46000016       1.28693438  F
Cu     131.26730633       7.28000021       2.57386875  F
Cu     132.55424023       9.10000026       3.86080313  F
Cu     128.69343758       7.28000021       0.00000000  F
Cu     129.98037195       9.10000026       1.28693438  F
Cu     135.12810898       5.46000016       3.86080313  F
Cu     136.41504383       7.28000021       5.14773750  F
Cu     132.55424023       5.46000016       1.28693438  F
Cu     133.84117508       7.28000021       2.57386875  F
Cu     135.12810898       9.10000026       3.86080313  F
Cu     131.26730633       7.28000021       0.00000000  F
Cu     132.55424023       9.10000026       1.28693438  F
Cu     135.12810898       5.46000016       1.28693438  F
Cu     136.41504383       7.28000021       2.57386875  F
Cu     133.84117508       7.28000021       0.00000000  F
Cu     135.12810898       9.10000026       1.28693438  F
Cu     136.41504383       7.28000021       0.00000000  F
Cu     130.21245946       9.14096217       6.63090813  T
Cu     134.82044769       9.14722333       6.67236099  T
O      130.68445242       3.61373216       7.25212868  T
O      135.05144084       7.27299102       6.65427400  T
O      130.06286543       7.24912800       6.65320501  T
Cu     134.88788140       5.37566320       6.62987327  T
Cu     130.21098891       5.37096541       6.64390198  T
O      134.30196996      10.90731497       7.22157004  T
Cu     132.49281279      10.77950989       7.32877900  T
Cu      61.77285004     -29.12000084       5.14773750  F
Cu      64.34671879     -29.12000084       5.14773750  F
Cu      61.77285004     -29.12000084       2.57386875  F
Cu      66.92058754     -29.12000084       5.14773750  F
Cu      64.34671879     -29.12000084       2.57386875  F
Cu      61.77285004     -29.12000084       0.00000000  F
Cu      68.20752192     -30.94000089       3.86080313  F
Cu      69.49445629     -29.12000084       5.14773750  F
Cu      66.92058754     -29.12000084       2.57386875  F
Cu      68.20752192     -27.30000079       3.86080313  F
Cu      64.34671879     -29.12000084       0.00000000  F
Cu      70.78139019     -30.94000089       3.86080313  F
Cu      72.06832504     -29.12000084       5.14773750  F
Cu      68.20752192     -30.94000089       1.28693438  F
Cu      69.49445629     -29.12000084       2.57386875  F
Cu      70.78139019     -27.30000079       3.86080313  F
Cu      66.92058754     -29.12000084       0.00000000  F
Cu      68.20752192     -27.30000079       1.28693438  F
Cu      73.35525894     -30.94000089       3.86080313  F
Cu      74.64219379     -29.12000084       5.14773750  F
Cu      70.78139019     -30.94000089       1.28693438  F
Cu      72.06832504     -29.12000084       2.57386875  F
Cu      73.35525894     -27.30000079       3.86080313  F
Cu      69.49445629     -29.12000084       0.00000000  F
Cu      70.78139019     -27.30000079       1.28693438  F
Cu      73.35525894     -30.94000089       1.28693438  F
Cu      74.64219379     -29.12000084       2.57386875  F
Cu      72.06832504     -29.12000084       0.00000000  F
Cu      73.35525894     -27.30000079       1.28693438  F
Cu      74.64219379     -29.12000084       0.00000000  F
Cu      68.43960942     -27.25903888       6.63090813  T
Cu      73.04759766     -27.25277772       6.67236099  T
O       68.91160238     -32.78626889       7.25212868  T
O       73.27859080     -29.12701003       6.65427400  T
O       68.29001540     -29.15087305       6.65320501  T
Cu      73.11503136     -31.02433785       6.62987327  T
Cu      68.43813887     -31.02903564       6.64390198  T
O       72.52911992     -25.49268608       7.22157004  T
Cu      70.71996276     -25.62049116       7.32877900  T
Cu      69.49445629     -25.48000073       5.14773750  F
Cu      72.06832504     -25.48000073       5.14773750  F
Cu      69.49445629     -25.48000073       2.57386875  F
Cu      74.64219379     -25.48000073       5.14773750  F
Cu      72.06832504     -25.48000073       2.57386875  F
Cu      69.49445629     -25.48000073       0.00000000  F
Cu      75.92912817     -27.30000079       3.86080313  F
Cu      77.21606255     -25.48000073       5.14773750  F
Cu      74.64219379     -25.48000073       2.57386875  F
Cu      75.92912817     -23.66000068       3.86080313  F
Cu      72.06832504     -25.48000073       0.00000000  F
Cu      78.50299644     -27.30000079       3.86080313  F
Cu      79.78993130     -25.48000073       5.14773750  F
Cu      75.92912817     -27.30000079       1.28693438  F
Cu      77.21606255     -25.48000073       2.57386875  F
Cu      78.50299644     -23.66000068       3.86080313  F
Cu      74.64219379     -25.48000073       0.00000000  F
Cu      75.92912817     -23.66000068       1.28693438  F
Cu      81.07686520     -27.30000079       3.86080313  F
Cu      82.36380005     -25.48000073       5.14773750  F
Cu      78.50299644     -27.30000079       1.28693438  F
Cu      79.78993130     -25.48000073       2.57386875  F
Cu      81.07686520     -23.66000068       3.86080313  F
Cu      77.21606255     -25.48000073       0.00000000  F
Cu      78.50299644     -23.66000068       1.28693438  F
Cu      81.07686520     -27.30000079       1.28693438  F
Cu      82.36380005     -25.48000073       2.57386875  F
Cu      79.78993130     -25.48000073       0.00000000  F
Cu      81.07686520     -23.66000068       1.28693438  F
Cu      82.36380005     -25.48000073       0.00000000  F
Cu      76.16121568     -23.61903877       6.63090813  T
Cu      80.76920391     -23.61277761       6.67236099  T
O       76.63320863     -29.14626879       7.25212868  T
O       81.00019706     -25.48700993       6.65427400  T
O       76.01162165     -25.51087294       6.65320501  T
Cu      80.83663762     -27.38433774       6.62987327  T
Cu      76.15974513     -27.38903554       6.64390198  T
O       80.25072617     -21.85268598       7.22157004  T
Cu      78.44156901     -21.98049106       7.32877900  T
Cu      77.21606255     -21.84000063       5.14773750  F
Cu      79.78993130     -21.84000063       5.14773750  F
Cu      77.21606255     -21.84000063       2.57386875  F
Cu      82.36380005     -21.84000063       5.14773750  F
Cu      79.78993130     -21.84000063       2.57386875  F
Cu      77.21606255     -21.84000063       0.00000000  F
Cu      83.65073442     -23.66000068       3.86080313  F
Cu      84.93766880     -21.84000063       5.14773750  F
Cu      82.36380005     -21.84000063       2.57386875  F
Cu      83.65073442     -20.02000058       3.86080313  F
Cu      79.78993130     -21.84000063       0.00000000  F
Cu      86.22460270     -23.66000068       3.86080313  F
Cu      87.51153755     -21.84000063       5.14773750  F
Cu      83.65073442     -23.66000068       1.28693438  F
Cu      84.93766880     -21.84000063       2.57386875  F
Cu      86.22460270     -20.02000058       3.86080313  F
Cu      82.36380005     -21.84000063       0.00000000  F
Cu      83.65073442     -20.02000058       1.28693438  F
Cu      88.79847145     -23.66000068       3.86080313  F
Cu      90.08540630     -21.84000063       5.14773750  F
Cu      86.22460270     -23.66000068       1.28693438  F
Cu      87.51153755     -21.84000063       2.57386875  F
Cu      88.79847145     -20.02000058       3.86080313  F
Cu      84.93766880     -21.84000063       0.00000000  F
Cu      86.22460270     -20.02000058       1.28693438  F
Cu      88.79847145     -23.66000068       1.28693438  F
Cu      90.08540630     -21.84000063       2.57386875  F
Cu      87.51153755     -21.84000063       0.00000000  F
Cu      88.79847145     -20.02000058       1.28693438  F
Cu      90.08540630     -21.84000063       0.00000000  F
Cu      83.88282193     -19.97903867       6.63090813  T
Cu      88.49081017     -19.97277751       6.67236099  T
O       84.35481489     -25.50626868       7.25212868  T
O       88.72180331     -21.84700982       6.65427400  T
O       83.73322791     -21.87087284       6.65320501  T
Cu      88.55824387     -23.74433764       6.62987327  T
Cu      83.88135138     -23.74903543       6.64390198  T
O       87.97233243     -18.21268587       7.22157004  T
Cu      86.16317527     -18.34049095       7.32877900  T
Cu      84.93766880     -18.20000052       5.14773750  F
Cu      87.51153755     -18.20000052       5.14773750  F
Cu      84.93766880     -18.20000052       2.57386875  F
Cu      90.08540630     -18.20000052       5.14773750  F
Cu      87.51153755     -18.20000052       2.57386875  F
Cu      84.93766880     -18.20000052       0.00000000  F
Cu      91.37234068     -20.02000058       3.86080313  F
Cu      92.65927505     -18.20000052       5.14773750  F
Cu      90.08540630     -18.20000052       2.57386875  F
Cu      91.37234068     -16.38000047       3.86080313  F
Cu      87.51153755     -18.20000052       0.00000000  F
Cu      93.94620895     -20.02000058       3.86080313  F
Cu      95.23314381     -18.20000052       5.14773750  F
Cu      91.37234068     -20.02000058       1.28693438  F
Cu      92.65927505     -18.20000052       2.57386875  F
Cu      93.94620895     -16.38000047       3.86080313  F
Cu      90.08540630     -18.20000052       0.00000000  F
Cu      91.37234068     -16.38000047       1.28693438  F
Cu      96.52007771     -20.02000058       3.86080313  F
Cu      97.80701256     -18.20000052       5.14773750  F
Cu      93.94620895     -20.02000058       1.28693438  F
Cu      95.23314381     -18.20000052       2.57386875  F
Cu      96.52007771     -16.38000047       3.86080313  F
Cu      92.65927505     -18.20000052       0.00000000  F
Cu      93.94620895     -16.38000047       1.28693438  F
Cu      96.52007771     -20.02000058       1.28693438  F
Cu      97.80701256     -18.20000052       2.57386875  F
Cu      95.23314381     -18.20000052       0.00000000  F
Cu      96.52007771     -16.38000047       1.28693438  F
Cu      97.80701256     -18.20000052       0.00000000  F
Cu      91.60442818     -16.33903856       6.63090813  T
Cu      96.21241642     -16.33277740       6.67236099  T
O       92.07642114     -21.86626858       7.25212868  T
O       96.44340957     -18.20700972       6.65427400  T
O       91.45483416     -18.23087273       6.65320501  T
Cu      96.27985013     -20.10433753       6.62987327  T
Cu      91.60295764     -20.10903533       6.64390198  T
O       95.69393868     -14.57268577       7.22157004  T
Cu      93.88478152     -14.70049085       7.32877900  T
Cu      92.65927505     -14.56000042       5.14773750  F
Cu      95.23314381     -14.56000042       5.14773750  F
Cu      92.65927505     -14.56000042       2.57386875  F
Cu      97.80701256     -14.56000042       5.14773750  F
Cu      95.23314381     -14.56000042       2.57386875  F
Cu      92.65927505     -14.56000042       0.00000000  F
Cu      99.09394693     -16.38000047       3.86080313  F
Cu     100.38088131     -14.56000042       5.14773750  F
Cu      97.80701256     -14.56000042       2.57386875  F
Cu      99.09394693     -12.74000037       3.86080313  F
Cu      95.23314381     -14.56000042       0.00000000  F
Cu     101.66781521     -16.38000047       3.86080313  F
Cu     102.95475006     -14.56000042       5.14773750  F
Cu      99.09394693     -16.38000047       1.28693438  F
Cu     100.38088131     -14.56000042       2.57386875  F
Cu     101.66781521     -12.74000037       3.86080313  F
Cu      97.80701256     -14.56000042       0.00000000  F
Cu      99.09394693     -12.74000037       1.28693438  F
Cu     104.24168396     -16.38000047       3.86080313  F
Cu     105.52861881     -14.56000042       5.14773750  F
Cu     101.66781521     -16.38000047       1.28693438  F
Cu     102.95475006     -14.56000042       2.57386875  F
Cu     104.24168396     -12.74000037       3.86080313  F
Cu     100.38088131     -14.56000042       0.00000000  F
Cu     101.66781521     -12.74000037       1.28693438  F
Cu     104.24168396     -16.38000047       1.28693438  F
Cu     105.52861881     -14.56000042       2.57386875  F
Cu     102.95475006     -14.56000042       0.00000000  F
Cu     104.24168396     -12.74000037       1.28693438  F
Cu     105.52861881     -14.56000042       0.00000000  F
Cu      99.32603444     -12.69903846       6.63090813  T
Cu     103.93402268     -12.69277730       6.67236099  T
O       99.79802740     -18.22626847       7.25212868  T
O      104.16501582     -14.56700961       6.65427400  T
O       99.17644041     -14.59087263       6.65320501  T
Cu     104.00145638     -16.46433743       6.62987327  T
Cu      99.32456389     -16.46903522       6.64390198  T
O      103.41554494     -10.93268566       7.22157004  T
Cu     101.60638778     -11.06049074       7.32877900  T
Cu     100.38088131     -10.92000031       5.14773750  F
Cu     102.95475006     -10.92000031       5.14773750  F
Cu     100.38088131     -10.92000031       2.57386875  F
Cu     105.52861881     -10.92000031       5.14773750  F
Cu     102.95475006     -10.92000031       2.57386875  F
Cu     100.38088131     -10.92000031       0.00000000  F
Cu     106.81555319     -12.74000037       3.86080313  F
Cu     108.10248756     -10.92000031       5.14773750  F
Cu     105.52861881     -10.92000031       2.57386875  F
Cu     106.81555319      -9.10000026       3.86080313  F
Cu     102.95475006     -10.92000031       0.00000000  F
Cu     109.38942146     -12.74000037       3.86080313  F
Cu     110.67635632     -10.92000031       5.14773750  F
Cu     106.81555319     -12.74000037       1.28693438  F
Cu     108.10248756     -10.92000031       2.57386875  F
Cu     109.38942146      -9.10000026       3.86080313  F
Cu     105.52861881     -10.92000031       0.00000000  F
Cu     106.81555319      -9.10000026       1.28693438  F
Cu     111.96329021     -12.74000037       3.86080313  F
Cu     113.25022507     -10.92000031       5.14773750  F
Cu     109.38942146     -12.74000037       1.28693438  F
Cu     110.67635632     -10.92000031       2.57386875  F
Cu     111.96329021      -9.10000026       3.86080313  F
Cu     108.10248756     -10.92000031       0.00000000  F
Cu     109.38942146      -9.10000026       1.28693438  F
Cu     111.96329021     -12.74000037       1.28693438  F
Cu     113.25022507     -10.92000031       2.57386875  F
Cu     110.67635632     -10.92000031       0.00000000  F
Cu     111.96329021      -9.10000026       1.28693438  F
Cu     113.25022507     -10.92000031       0.00000000  F
Cu     107.04764069      -9.05903835       6.63090813  T
Cu     111.65562893      -9.05277719       6.67236099  T
O      107.51963365     -14.58626837       7.25212868  T
O      111.88662208     -10.92700951       6.65427400  T
O      106.89804667     -10.95087252       6.65320501  T
Cu     111.72306263     -12.82433732       6.62987327  T
Cu     107.04617015     -12.82903512       6.64390198  T
O      111.13715119      -7.29268556       7.22157004  T
Cu     109.32799403      -7.42049064       7.32877900  T
Cu     108.10248756      -7.28000021       5.14773750  F
Cu     110.67635632      -7.28000021       5.14773750  F
Cu     108.10248756      -7.28000021       2.57386875  F
Cu     113.25022507      -7.28000021       5.14773750  F
Cu     110.67635632      -7.28000021       2.57386875  F
Cu     108.10248756      -7.28000021       0.00000000  F
Cu     114.53715944      -9.10000026       3.86080313  F
Cu     115.82409382      -7.28000021       5.14773750  F
Cu     113.25022507      -7.28000021       2.57386875  F
Cu     114.53715944      -5.46000016       3.86080313  F
Cu     110.67635632      -7.28000021       0.00000000  F
Cu     117.11102772      -9.10000026       3.86080313  F
Cu     118.39796257      -7.28000021       5.14773750  F
Cu     114.53715944      -9.10000026       1.28693438  F
Cu     115.82409382      -7.28000021       2.57386875  F
Cu     117.11102772      -5.46000016       3.86080313  F
Cu     113.25022507      -7.28000021       0.00000000  F
Cu     114.53715944      -5.46000016       1.28693438  F
Cu     119.68489647      -9.10000026       3.86080313  F
Cu     120.97183132      -7.28000021       5.14773750  F
Cu     117.11102772      -9.10000026       1.28693438  F
Cu     118.39796257      -7.28000021       2.57386875  F
Cu     119.68489647      -5.46000016       3.86080313  F
Cu     115.82409382      -7.28000021       0.00000000  F
Cu     117.11102772      -5.46000016       1.28693438  F
Cu     119.68489647      -9.10000026       1.28693438  F
Cu     120.97183132      -7.28000021       2.57386875  F
Cu     118.39796257      -7.28000021       0.00000000  F
Cu     119.68489647      -5.46000016       1.28693438  F
Cu     120.97183132      -7.28000021       0.00000000  F
Cu     114.76924695      -5.41903825       6.63090813  T
Cu     119.37723518      -5.41277709       6.67236099  T
O      115.24123991     -10.94626826       7.25212868  T
O      119.60822833      -7.28700940       6.65427400  T
O      114.61965292      -7.31087242       6.65320501  T
Cu     119.44466889      -9.18433722       6.62987327  T
Cu     114.76777640      -9.18903501       6.64390198  T
O      118.85875745      -3.65268545       7.22157004  T
Cu     117.04960028      -3.78049053       7.32877900  T
Cu     115.82409382      -3.64000010       5.14773750  F
Cu     118.39796257      -3.64000010       5.14773750  F
Cu     115.82409382      -3.64000010       2.57386875  F
Cu     120.97183132      -3.64000010       5.14773750  F
Cu     118.39796257      -3.64000010       2.57386875  F
Cu     115.82409382      -3.64000010       0.00000000  F
Cu     122.25876570      -5.46000016       3.86080313  F
Cu     123.54570007      -3.64000010       5.14773750  F
Cu     120.97183132      -3.64000010       2.57386875  F
Cu     122.25876570      -1.82000005       3.86080313  F
Cu     118.39796257      -3.64000010       0.00000000  F
Cu     124.83263397      -5.46000016       3.86080313  F
Cu     126.11956882      -3.64000010       5.14773750  F
Cu     122.25876570      -5.46000016       1.28693438  F
Cu     123.54570007      -3.64000010       2.57386875  F
Cu     124.83263397      -1.82000005       3.86080313  F
Cu     120.97183132      -3.64000010       0.00000000  F
Cu     122.25876570      -1.82000005       1.28693438  F
Cu     127.40650272      -5.46000016       3.86080313  F
Cu     128.69343758      -3.64000010       5.14773750  F
Cu     124.83263397      -5.46000016       1.28693438  F
Cu     126.11956882      -3.64000010       2.57386875  F
Cu     127.40650272      -1.82000005       3.86080313  F
Cu     123.54570007      -3.64000010       0.00000000  F
Cu     124.83263397      -1.82000005       1.28693438  F
Cu     127.40650272      -5.46000016       1.28693438  F
Cu     128.69343758      -3.64000010       2.57386875  F
Cu     126.11956882      -3.64000010       0.00000000  F
Cu     127.40650272      -1.82000005       1.28693438  F
Cu     128.69343758      -3.64000010       0.00000000  F
Cu     122.49085320      -1.77903814       6.63090813  T
Cu     127.09884144      -1.77277698       6.67236099  T
O      122.96284616      -7.30626816       7.25212868  T
O      127.32983459      -3.64700930       6.65427400  T
O      122.34125918      -3.67087232       6.65320501  T
Cu     127.16627514      -5.54433711       6.62987327  T
Cu     122.48938266      -5.54903491       6.64390198  T
O      126.58036370      -0.01268535       7.22157004  T
Cu     124.77120654      -0.14049043       7.32877900  T
Cu     123.54570007       0.00000000       5.14773750  F
Cu     126.11956882       0.00000000       5.14773750  F
Cu     123.54570007       0.00000000       2.57386875  F
Cu     128.69343758       0.00000000       5.14773750  F
Cu     126.11956882       0.00000000       2.57386875  F
Cu     123.54570007       0.00000000       0.00000000  F
Cu     129.98037195      -1.82000005       3.86080313  F
Cu     131.26730633       0.00000000       5.14773750  F
Cu     128.69343758       0.00000000       2.57386875  F
Cu     129.98037195       1.82000005       3.86080313  F
Cu     126.11956882       0.00000000       0.00000000  F
Cu     132.55424023      -1.82000005       3.86080313  F
Cu     133.84117508       0.00000000       5.14773750  F
Cu     129.98037195      -1.82000005       1.28693438  F
Cu     131.26730633       0.00000000       2.57386875  F
Cu     132.55424023       1.82000005       3.86080313  F
Cu     128.69343758       0.00000000       0.00000000  F
Cu     129.98037195       1.82000005       1.28693438  F
Cu     135.12810898      -1.82000005       3.86080313  F
Cu     136.41504383       0.00000000       5.14773750  F
Cu     132.55424023      -1.82000005       1.28693438  F
Cu     133.84117508       0.00000000       2.57386875  F
Cu     135.12810898       1.82000005       3.86080313  F
Cu     131.26730633       0.00000000       0.00000000  F
Cu     132.55424023       1.82000005       1.28693438  F
Cu     135.12810898      -1.82000005       1.28693438  F
Cu     136.41504383       0.00000000       2.57386875  F
Cu     133.84117508       0.00000000       0.00000000  F
Cu     135.12810898       1.82000005       1.28693438  F
Cu     136.41504383       0.00000000       0.00000000  F
Cu     130.21245946       1.86096196       6.63090813  T
Cu     134.82044769       1.86722312       6.67236099  T
O      130.68445242      -3.66626805       7.25212868  T
O      135.05144084      -0.00700919       6.65427400  T
O      130.06286543      -0.03087221       6.65320501  T
Cu     134.88788140      -1.90433701       6.62987327  T
Cu     130.21098891      -1.90903480       6.64390198  T
O      134.30196996       3.62731476       7.22157004  T
Cu     132.49281279       3.49950968       7.32877900  T
Cu     131.26730633       3.64000010       5.14773750  F
Cu     133.84117508       3.64000010       5.14773750  F
Cu     131.26730633       3.64000010       2.57386875  F
Cu     136.41504383       3.64000010       5.14773750  F
Cu     133.84117508       3.64000010       2.57386875  F
Cu     131.26730633       3.64000010       0.00000000  F
Cu     137.70197821       1.82000005       3.86080313  F
Cu     138.98891258       3.64000010       5.14773750  F
Cu     136.41504383       3.64000010       2.57386875  F
Cu     137.70197821       5.46000016       3.86080313  F
Cu     133.84117508       3.64000010       0.00000000  F
Cu     140.27584648       1.82000005       3.86080313  F
Cu     141.56278133       3.64000010       5.14773750  F
Cu     137.70197821       1.82000005       1.28693438  F
Cu     138.98891258       3.64000010       2.57386875  F
Cu     140.27584648       5.46000016       3.86080313  F
Cu     136.41504383       3.64000010       0.00000000  F
Cu     137.70197821       5.46000016       1.28693438  F
Cu     142.84971523       1.82000005       3.86080313  F
Cu     144.13665009       3.64000010       5.14773750  F
Cu     140.27584648       1.82000005       1.28693438  F
Cu     141.56278133       3.64000010       2.57386875  F
Cu     142.84971523       5.46000016       3.86080313  F
Cu     138.98891258       3.64000010       0.00000000  F
Cu     140.27584648       5.46000016       1.28693438  F
Cu     142.84971523       1.82000005       1.28693438  F
Cu     144.13665009       3.64000010       2.57386875  F
Cu     141.56278133       3.64000010       0.00000000  F
Cu     142.84971523       5.46000016       1.28693438  F
Cu     144.13665009       3.64000010       0.00000000  F
Cu     137.93406571       5.50096207       6.63090813  T
Cu     142.54205395       5.50722323       6.67236099  T
O      138.40605867      -0.02626795       7.25212868  T
O      142.77304710       3.63299091       6.65427400  T
O      137.78447169       3.60912789       6.65320501  T
Cu     142.60948765       1.73566310       6.62987327  T
Cu     137.93259516       1.73096530       6.64390198  T
O      142.02357621       7.26731486       7.22157004  T
Cu     140.21441905       7.13950978       7.32877900  T
Cu      69.49445629     -32.76000094       5.14773750  F
Cu      72.06832504     -32.76000094       5.14773750  F
Cu      69.49445629     -32.76000094       2.57386875  F
Cu      74.64219379     -32.76000094       5.14773750  F
Cu      72.06832504     -32.76000094       2.57386875  F
Cu      69.49445629     -32.76000094       0.00000000  F
Cu      75.92912817     -34.58000100       3.86080313  F
Cu      77.21606255     -32.76000094       5.14773750  F
Cu      74.64219379     -32.76000094       2.57386875  F
Cu      75.92912817     -30.94000089       3.86080313  F
Cu      72.06832504     -32.76000094       0.00000000  F
Cu      78.50299644     -34.58000100       3.86080313  F
Cu      79.78993130     -32.76000094       5.14773750  F
Cu      75.92912817     -34.58000100       1.28693438  F
Cu      77.21606255     -32.76000094       2.57386875  F
Cu      78.50299644     -30.94000089       3.86080313  F
Cu      74.64219379     -32.76000094       0.00000000  F
Cu      75.92912817     -30.94000089       1.28693438  F
Cu      81.07686520     -34.58000100       3.86080313  F
Cu      82.36380005     -32.76000094       5.14773750  F
Cu      78.50299644     -34.58000100       1.28693438  F
Cu      79.78993130     -32.76000094       2.57386875  F
Cu      81.07686520     -30.94000089       3.86080313  F
Cu      77.21606255     -32.76000094       0.00000000  F
Cu      78.50299644     -30.94000089       1.28693438  F
Cu      81.07686520     -34.58000100       1.28693438  F
Cu      82.36380005     -32.76000094       2.57386875  F
Cu      79.78993130     -32.76000094       0.00000000  F
Cu      81.07686520     -30.94000089       1.28693438  F
Cu      82.36380005     -32.76000094       0.00000000  F
Cu      76.16121568     -30.89903898       6.63090813  T
Cu      80.76920391     -30.89277782       6.67236099  T
O       76.63320863     -36.42626900       7.25212868  T
O       81.00019706     -32.76701014       6.65427400  T
O       76.01162165     -32.79087315       6.65320501  T
Cu      80.83663762     -34.66433795       6.62987327  T
Cu      76.15974513     -34.66903575       6.64390198  T
O       80.25072617     -29.13268619       7.22157004  T
Cu      78.44156901     -29.26049127       7.32877900  T
Cu      77.21606255     -29.12000084       5.14773750  F
Cu      79.78993130     -29.12000084       5.14773750  F
Cu      77.21606255     -29.12000084       2.57386875  F
Cu      82.36380005     -29.12000084       5.14773750  F
Cu      79.78993130     -29.12000084       2.57386875  F
Cu      77.21606255     -29.12000084       0.00000000  F
Cu      83.65073442     -30.94000089       3.86080313  F
Cu      84.93766880     -29.12000084       5.14773750  F
Cu      82.36380005     -29.12000084       2.57386875  F
Cu      83.65073442     -27.30000079       3.86080313  F
Cu      79.78993130     -29.12000084       0.00000000  F
Cu      86.22460270     -30.94000089       3.86080313  F
Cu      87.51153755     -29.12000084       5.14773750  F
Cu      83.65073442     -30.94000089       1.28693438  F
Cu      84.93766880     -29.12000084       2.57386875  F
Cu      86.22460270     -27.30000079       3.86080313  F
Cu      82.36380005     -29.12000084       0.00000000  F
Cu      83.65073442     -27.30000079       1.28693438  F
Cu      88.79847145     -30.94000089       3.86080313  F
Cu      90.08540630     -29.12000084       5.14773750  F
Cu      86.22460270     -30.94000089       1.28693438  F
Cu      87.51153755     -29.12000084       2.57386875  F
Cu      88.79847145     -27.30000079       3.86080313  F
Cu      84.93766880     -29.12000084       0.00000000  F
Cu      86.22460270     -27.30000079       1.28693438  F
Cu      88.79847145     -30.94000089       1.28693438  F
Cu      90.08540630     -29.12000084       2.57386875  F
Cu      87.51153755     -29.12000084       0.00000000  F
Cu      88.79847145     -27.30000079       1.28693438  F
Cu      90.08540630     -29.12000084       0.00000000  F
Cu      83.88282193     -27.25903888       6.63090813  T
Cu      88.49081017     -27.25277772       6.67236099  T
O       84.35481489     -32.78626889       7.25212868  T
O       88.72180331     -29.12701003       6.65427400  T
O       83.73322791     -29.15087305       6.65320501  T
Cu      88.55824387     -31.02433785       6.62987327  T
Cu      83.88135138     -31.02903564       6.64390198  T
O       87.97233243     -25.49268608       7.22157004  T
Cu      86.16317527     -25.62049116       7.32877900  T
Cu      84.93766880     -25.48000073       5.14773750  F
Cu      87.51153755     -25.48000073       5.14773750  F
Cu      84.93766880     -25.48000073       2.57386875  F
Cu      90.08540630     -25.48000073       5.14773750  F
Cu      87.51153755     -25.48000073       2.57386875  F
Cu      84.93766880     -25.48000073       0.00000000  F
Cu      91.37234068     -27.30000079       3.86080313  F
Cu      92.65927505     -25.48000073       5.14773750  F
Cu      90.08540630     -25.48000073       2.57386875  F
Cu      91.37234068     -23.66000068       3.86080313  F
Cu      87.51153755     -25.48000073       0.00000000  F
Cu      93.94620895     -27.30000079       3.86080313  F
Cu      95.23314381     -25.48000073       5.14773750  F
Cu      91.37234068     -27.30000079       1.28693438  F
Cu      92.65927505     -25.48000073       2.57386875  F
Cu      93.94620895     -23.66000068       3.86080313  F
Cu      90.08540630     -25.48000073       0.00000000  F
Cu      91.37234068     -23.66000068       1.28693438  F
Cu      96.52007771     -27.30000079       3.86080313  F
Cu      97.80701256     -25.48000073       5.14773750  F
Cu      93.94620895     -27.30000079       1.28693438  F
Cu      95.23314381     -25.48000073       2.57386875  F
Cu      96.52007771     -23.66000068       3.86080313  F
Cu      92.65927505     -25.48000073       0.00000000  F
Cu      93.94620895     -23.66000068       1.28693438  F
Cu      96.52007771     -27.30000079       1.28693438  F
Cu      97.80701256     -25.48000073       2.57386875  F
Cu      95.23314381     -25.48000073       0.00000000  F
Cu      96.52007771     -23.66000068       1.28693438  F
Cu      97.80701256     -25.48000073       0.00000000  F
Cu      91.60442818     -23.61903877       6.63090813  T
Cu      96.21241642     -23.61277761       6.67236099  T
O       92.07642114     -29.14626879       7.25212868  T
O       96.44340957     -25.48700993       6.65427400  T
O       91.45483416     -25.51087294       6.65320501  T
Cu      96.27985013     -27.38433774       6.62987327  T
Cu      91.60295764     -27.38903554       6.64390198  T
O       95.69393868     -21.85268598       7.22157004  T
Cu      93.88478152     -21.98049106       7.32877900  T
Cu      92.65927505     -21.84000063       5.14773750  F
Cu      95.23314381     -21.84000063       5.14773750  F
Cu      92.65927505     -21.84000063       2.57386875  F
Cu      97.80701256     -21.84000063       5.14773750  F
Cu      95.23314381     -21.84000063       2.57386875  F
Cu      92.65927505     -21.84000063       0.00000000  F
Cu      99.09394693     -23.66000068       3.86080313  F
Cu     100.38088131     -21.84000063       5.14773750  F
Cu      97.80701256     -21.84000063       2.57386875  F
Cu      99.09394693     -20.02000058       3.86080313  F
Cu      95.23314381     -21.84000063       0.00000000  F
Cu     101.66781521     -23.66000068       3.86080313  F
Cu     102.95475006     -21.84000063       5.14773750  F
Cu      99.09394693     -23.66000068       1.28693438  F
Cu     100.38088131     -21.84000063       2.57386875  F
Cu     101.66781521     -20.02000058       3.86080313  F
Cu      97.80701256     -21.84000063       0.00000000  F
Cu      99.09394693     -20.02000058       1.28693438  F
Cu     104.24168396     -23.66000068       3.86080313  F
Cu     105.52861881     -21.84000063       5.14773750  F
Cu     101.66781521     -23.66000068       1.28693438  F
Cu     102.95475006     -21.84000063       2.57386875  F
Cu     104.24168396     -20.02000058       3.86080313  F
Cu     100.38088131     -21.84000063       0.00000000  F
Cu     101.66781521     -20.02000058       1.28693438  F
Cu     104.24168396     -23.66000068       1.28693438  F
Cu     105.52861881     -21.84000063       2.57386875  F
Cu     102.95475006     -21.84000063       0.00000000  F
Cu     104.24168396     -20.02000058       1.28693438  F
Cu     105.52861881     -21.84000063       0.00000000  F
Cu      99.32603444     -19.97903867       6.63090813  T
Cu     103.93402268     -19.97277751       6.67236099  T
O       99.79802740     -25.50626868       7.25212868  T
O      104.16501582     -21.84700982       6.65427400  T
O       99.17644041     -21.87087284       6.65320501  T
Cu     104.00145638     -23.74433764       6.62987327  T
Cu      99.32456389     -23.74903543       6.64390198  T
O      103.41554494     -18.21268587       7.22157004  T
Cu     101.60638778     -18.34049095       7.32877900  T
Cu     100.38088131     -18.20000052       5.14773750  F
Cu     102.95475006     -18.20000052       5.14773750  F
Cu     100.38088131     -18.20000052       2.57386875  F
Cu     105.52861881     -18.20000052       5.14773750  F
Cu     102.95475006     -18.20000052       2.57386875  F
Cu     100.38088131     -18.20000052       0.00000000  F
Cu     106.81555319     -20.02000058       3.86080313  F
Cu     108.10248756     -18.20000052       5.14773750  F
Cu     105.52861881     -18.20000052       2.57386875  F
Cu     106.81555319     -16.38000047       3.86080313  F
Cu     102.95475006     -18.20000052       0.00000000  F
Cu     109.38942146     -20.02000058       3.86080313  F
Cu     110.67635632     -18.20000052       5.14773750  F
Cu     106.81555319     -20.02000058       1.28693438  F
Cu     108.10248756     -18.20000052       2.57386875  F
Cu     109.38942146     -16.38000047       3.86080313  F
Cu     105.52861881     -18.20000052       0.00000000  F
Cu     106.81555319     -16.38000047       1.28693438  F
Cu     111.96329021     -20.02000058       3.86080313  F
Cu     113.25022507     -18.20000052       5.14773750  F
Cu     109.38942146     -20.02000058       1.28693438  F
Cu     110.67635632     -18.20000052       2.57386875  F
Cu     111.96329021     -16.38000047       3.86080313  F
Cu     108.10248756     -18.20000052       0.00000000  F
Cu     109.38942146     -16.38000047       1.28693438  F
Cu     111.96329021     -20.02000058       1.28693438  F
Cu     113.25022507     -18.20000052       2.57386875  F
Cu     110.67635632     -18.20000052       0.00000000  F
Cu     111.96329021     -16.38000047       1.28693438  F
Cu     113.25022507     -18.20000052       0.00000000  F
Cu     107.04764069     -16.33903856       6.63090813  T
Cu     111.65562893     -16.33277740       6.67236099  T
O      107.51963365     -21.86626858       7.25212868  T
O      111.88662208     -18.20700972       6.65427400  T
O      106.89804667     -18.23087273       6.65320501  T
Cu     111.72306263     -20.10433753       6.62987327  T
Cu     107.04617015     -20.10903533       6.64390198  T
O      111.13715119     -14.57268577       7.22157004  T
Cu     109.32799403     -14.70049085       7.32877900  T
Cu     108.10248756     -14.56000042       5.14773750  F
Cu     110.67635632     -14.56000042       5.14773750  F
Cu     108.10248756     -14.56000042       2.57386875  F
Cu     113.25022507     -14.56000042       5.14773750  F
Cu     110.67635632     -14.56000042       2.57386875  F
Cu     108.10248756     -14.56000042       0.00000000  F
Cu     114.53715944     -16.38000047       3.86080313  F
Cu     115.82409382     -14.56000042       5.14773750  F
Cu     113.25022507     -14.56000042       2.57386875  F
Cu     114.53715944     -12.74000037       3.86080313  F
Cu     110.67635632     -14.56000042       0.00000000  F
Cu     117.11102772     -16.38000047       3.86080313  F
Cu     118.39796257     -14.56000042       5.14773750  F
Cu     114.53715944     -16.38000047       1.28693438  F
Cu     115.82409382     -14.56000042       2.57386875  F
Cu     117.11102772     -12.74000037       3.86080313  F
Cu     113.25022507     -14.56000042       0.00000000  F
Cu     114.53715944     -12.74000037       1.28693438  F
Cu     119.68489647     -16.38000047       3.86080313  F
Cu     120.97183132     -14.56000042       5.14773750  F
Cu     117.11102772     -16.38000047       1.28693438  F
Cu     118.39796257     -14.56000042       2.57386875  F
Cu     119.68489647     -12.74000037       3.86080313  F
Cu     115.82409382     -14.56000042       0.00000000  F
Cu     117.11102772     -12.74000037       1.28693438  F
Cu     119.68489647     -16.38000047       1.28693438  F
Cu     120.97183132     -14.56000042       2.57386875  F
Cu     118.39796257     -14.56000042       0.00000000  F
Cu     119.68489647     -12.74000037       1.28693438  F
Cu     120.97183132     -14.56000042       0.00000000  F
Cu     114.76924695     -12.69903846       6.63090813  T
Cu     119.37723518     -12.69277730       6.67236099  T
O      115.24123991     -18.22626847       7.25212868  T
O      119.60822833     -14.56700961       6.65427400  T
O      114.61965292     -14.59087263       6.65320501  T
Cu     119.44466889     -16.46433743       6.62987327  T
Cu     114.76777640     -16.46903522       6.64390198  T
O      118.85875745     -10.93268566       7.22157004  T
Cu     117.04960028     -11.06049074       7.32877900  T
Cu     115.82409382     -10.92000031       5.14773750  F
Cu     118.39796257     -10.92000031       5.14773750  F
Cu     115.82409382     -10.92000031       2.57386875  F
Cu     120.97183132     -10.92000031       5.14773750  F
Cu     118.39796257     -10.92000031       2.57386875  F
Cu     115.82409382     -10.92000031       0.00000000  F
Cu     122.25876570     -12.74000037       3.86080313  F
Cu     123.54570007     -10.92000031       5.14773750  F
Cu     120.97183132     -10.92000031       2.57386875  F
Cu     122.25876570      -9.10000026       3.86080313  F
Cu     118.39796257     -10.92000031       0.00000000  F
Cu     124.83263397     -12.74000037       3.86080313  F
Cu     126.11956882     -10.92000031       5.14773750  F
Cu     122.25876570     -12.74000037       1.28693438  F
Cu     123.54570007     -10.92000031       2.57386875  F
Cu     124.83263397      -9.10000026       3.86080313  F
Cu     120.97183132     -10.92000031       0.00000000  F
Cu     122.25876570      -9.10000026       1.28693438  F
Cu     127.40650272     -12.74000037       3.86080313  F
Cu     128.69343758     -10.92000031       5.14773750  F
Cu     124.83263397     -12.74000037       1.28693438  F
Cu     126.11956882     -10.92000031       2.57386875  F
Cu     127.40650272      -9.10000026       3.86080313  F
Cu     123.54570007     -10.92000031       0.00000000  F
Cu     124.83263397      -9.10000026       1.28693438  F
Cu     127.40650272     -12.74000037       1.28693438  F
Cu     128.69343758     -10.92000031       2.57386875  F
Cu     126.11956882     -10.92000031       0.00000000  F
Cu     127.40650272      -9.10000026       1.28693438  F
Cu     128.69343758     -10.92000031       0.00000000  F
Cu     122.49085320      -9.05903835       6.63090813  T
Cu     127.09884144      -9.05277719       6.67236099  T
O      122.96284616     -14.58626837       7.25212868  T
O      127.32983459     -10.92700951       6.65427400  T
O      122.34125918     -10.95087252       6.65320501  T
Cu     127.16627514     -12.82433732       6.62987327  T
Cu     122.48938266     -12.82903512       6.64390198  T
O      126.58036370      -7.29268556       7.22157004  T
Cu     124.77120654      -7.42049064       7.32877900  T
Cu     123.54570007      -7.28000021       5.14773750  F
Cu     126.11956882      -7.28000021       5.14773750  F
Cu     123.54570007      -7.28000021       2.57386875  F
Cu     128.69343758      -7.28000021       5.14773750  F
Cu     126.11956882      -7.28000021       2.57386875  F
Cu     123.54570007      -7.28000021       0.00000000  F
Cu     129.98037195      -9.10000026       3.86080313  F
Cu     131.26730633      -7.28000021       5.14773750  F
Cu     128.69343758      -7.28000021       2.57386875  F
Cu     129.98037195      -5.46000016       3.86080313  F
Cu     126.11956882      -7.28000021       0.00000000  F
Cu     132.55424023      -9.10000026       3.86080313  F
Cu     133.84117508      -7.28000021       5.14773750  F
Cu     129.98037195      -9.10000026       1.28693438  F
Cu     131.26730633      -7.28000021       2.57386875  F
Cu     132.55424023      -5.46000016       3.86080313  F
Cu     128.69343758      -7.28000021       0.00000000  F
Cu     129.98037195      -5.46000016       1.28693438  F
Cu     135.12810898      -9.10000026       3.86080313  F
Cu     136.41504383      -7.28000021       5.14773750  F
Cu     132.55424023      -9.10000026       1.28693438  F
Cu     133.84117508      -7.28000021       2.57386875  F
Cu     135.12810898      -5.46000016       3.86080313  F
Cu     131.26730633      -7.28000021       0.00000000  F
Cu     132.55424023      -5.46000016       1.28693438  F
Cu     135.12810898      -9.10000026       1.28693438  F
Cu     136.41504383      -7.28000021       2.57386875  F
Cu     133.84117508      -7.28000021       0.00000000  F
Cu     135.12810898      -5.46000016       1.28693438  F
Cu     136.41504383      -7.28000021       0.00000000  F
Cu     130.21245946      -5.41903825       6.63090813  T
Cu     134.82044769      -5.41277709       6.67236099  T
O      130.68445242     -10.94626826       7.25212868  T
O      135.05144084      -7.28700940       6.65427400  T
O      130.06286543      -7.31087242       6.65320501  T
Cu     134.88788140      -9.18433722       6.62987327  T
Cu     130.21098891      -9.18903501       6.64390198  T
O      134.30196996      -3.65268545       7.22157004  T
Cu     132.49281279      -3.78049053       7.32877900  T
Cu     131.26730633      -3.64000010       5.14773750  F
Cu     133.84117508      -3.64000010       5.14773750  F
Cu     131.26730633      -3.64000010       2.57386875  F
Cu     136.41504383      -3.64000010       5.14773750  F
Cu     133.84117508      -3.64000010       2.57386875  F
Cu     131.26730633      -3.64000010       0.00000000  F
Cu     137.70197821      -5.46000016       3.86080313  F
Cu     138.98891258      -3.64000010       5.14773750  F
Cu     136.41504383      -3.64000010       2.57386875  F
Cu     137.70197821      -1.82000005       3.86080313  F
Cu     133.84117508      -3.64000010       0.00000000  F
Cu     140.27584648      -5.46000016       3.86080313  F
Cu     141.56278133      -3.64000010       5.14773750  F
Cu     137.70197821      -5.46000016       1.28693438  F
Cu     138.98891258      -3.64000010       2.57386875  F
Cu     140.27584648      -1.82000005       3.86080313  F
Cu     136.41504383      -3.64000010       0.00000000  F
Cu     137.70197821      -1.82000005       1.28693438  F
Cu     142.84971523      -5.46000016       3.86080313  F
Cu     144.13665009      -3.64000010       5.14773750  F
Cu     140.27584648      -5.46000016       1.28693438  F
Cu     141.56278133      -3.64000010       2.57386875  F
Cu     142.84971523      -1.82000005       3.86080313  F
Cu     138.98891258      -3.64000010       0.00000000  F
Cu     140.27584648      -1.82000005       1.28693438  F
Cu     142.84971523      -5.46000016       1.28693438  F
Cu     144.13665009      -3.64000010       2.57386875  F
Cu     141.56278133      -3.64000010       0.00000000  F
Cu     142.84971523      -1.82000005       1.28693438  F
Cu     144.13665009      -3.64000010       0.00000000  F
Cu     137.93406571      -1.77903814       6.63090813  T
Cu     142.54205395      -1.77277698       6.67236099  T
O      138.40605867      -7.30626816       7.25212868  T
O      142.77304710      -3.64700930       6.65427400  T
O      137.78447169      -3.67087232       6.65320501  T
Cu     142.60948765      -5.54433711       6.62987327  T
Cu     137.93259516      -5.54903491       6.64390198  T
O      142.02357621      -0.01268535       7.22157004  T
Cu     140.21441905      -0.14049043       7.32877900  T
Cu     138.98891258       0.00000000       5.14773750  F
Cu     141.56278133       0.00000000       5.14773750  F
Cu     138.98891258       0.00000000       2.57386875  F
Cu     144.13665009       0.00000000       5.14773750  F
Cu     141.56278133       0.00000000       2.57386875  F
Cu     138.98891258       0.00000000       0.00000000  F
Cu     145.42358446      -1.82000005       3.86080313  F
Cu     146.71051884       0.00000000       5.14773750  F
Cu     144.13665009       0.00000000       2.57386875  F
Cu     145.42358446       1.82000005       3.86080313  F
Cu     141.56278133       0.00000000       0.00000000  F
Cu     147.99745274      -1.82000005       3.86080313  F
Cu     149.28438759       0.00000000       5.14773750  F
Cu     145.42358446      -1.82000005       1.28693438  F
Cu     146.71051884       0.00000000       2.57386875  F
Cu     147.99745274       1.82000005       3.86080313  F
Cu     144.13665009       0.00000000       0.00000000  F
Cu     145.42358446       1.82000005       1.28693438  F
Cu     150.57132149      -1.82000005       3.86080313  F
Cu     151.85825634       0.00000000       5.14773750  F
Cu     147.99745274      -1.82000005       1.28693438  F
Cu     149.28438759       0.00000000       2.57386875  F
Cu     150.57132149       1.82000005       3.86080313  F
Cu     146.71051884       0.00000000       0.00000000  F
Cu     147.99745274       1.82000005       1.28693438  F
Cu     150.57132149      -1.82000005       1.28693438  F
Cu     151.85825634       0.00000000       2.57386875  F
Cu     149.28438759       0.00000000       0.00000000  F
Cu     150.57132149       1.82000005       1.28693438  F
Cu     151.85825634       0.00000000       0.00000000  F
Cu     145.65567197       1.86096196       6.63090813  T
Cu     150.26366020       1.86722312       6.67236099  T
O      146.12766493      -3.66626805       7.25212868  T
O      150.49465335      -0.00700919       6.65427400  T
O      145.50607794      -0.03087221       6.65320501  T
Cu     150.33109391      -1.90433701       6.62987327  T
Cu     145.65420142      -1.90903480       6.64390198  T
O      149.74518247       3.62731476       7.22157004  T
Cu     147.93602530       3.49950968       7.32877900  T
