55
Lattice="19.431534980000002 0.0 0.0 0.0 19.431534980000002 0.0 0.0 0.0 19.431534980000002" Properties=species:S:1:pos:R:3:tags:I:1 pbc="F F F"
Pt       9.71576749       9.71576749       9.71576749        1
Pt      12.07365123       9.71576749       8.25851519        2
Pt      12.07365123       9.71576749      11.17301979        2
Pt       7.35788375       9.71576749       8.25851519        2
Pt       7.35788375       9.71576749      11.17301979        2
Pt       8.25851519      12.07365123       9.71576749        2
Pt      11.17301979      12.07365123       9.71576749        2
Pt       8.25851519       7.35788375       9.71576749        2
Pt      11.17301979       7.35788375       9.71576749        2
Pt       9.71576749       8.25851519      12.07365123        2
Pt       9.71576749      11.17301979      12.07365123        2
Pt       9.71576749       8.25851519       7.35788375        2
Pt       9.71576749      11.17301979       7.35788375        2
Au      14.43153498       9.71576749       6.80126290        3
Au      14.43153498       9.71576749       9.71576749        3
Au      14.43153498       9.71576749      12.63027208        3
Au       5.00000000       9.71576749       6.80126290        3
Au       5.00000000       9.71576749       9.71576749        3
Au       5.00000000       9.71576749      12.63027208        3
Au       6.80126290      14.43153498       9.71576749        3
Au       9.71576749      14.43153498       9.71576749        3
Au      12.63027208      14.43153498       9.71576749        3
Au       6.80126290       5.00000000       9.71576749        3
Au       9.71576749       5.00000000       9.71576749        3
Au      12.63027208       5.00000000       9.71576749        3
Au       9.71576749       6.80126290      14.43153498        3
Au       9.71576749       9.71576749      14.43153498        3
Au       9.71576749      12.63027208      14.43153498        3
Au       9.71576749       6.80126290       5.00000000        3
Pt       9.71576749       9.71576749       5.00000000        3
Au       9.71576749      12.63027208       5.00000000        3
Pt      12.07365123       8.25851519      13.53090353        3
Au      12.07365123      11.17301979      13.53090353        3
Pt      12.07365123       8.25851519       5.90063145        3
Pt      12.07365123      11.17301979       5.90063145        3
Pt       7.35788375       8.25851519      13.53090353        3
Pt       7.35788375      11.17301979      13.53090353        3
Pt       7.35788375       8.25851519       5.90063145        3
Pt       7.35788375      11.17301979       5.90063145        3
Pt      13.53090353      12.07365123       8.25851519        3
Pt      13.53090353      12.07365123      11.17301979        3
Pt       5.90063145      12.07365123       8.25851519        3
Pt       5.90063145      12.07365123      11.17301979        3
Pt      13.53090353       7.35788375       8.25851519        3
Pt      13.53090353       7.35788375      11.17301979        3
Pt       5.90063145       7.35788375       8.25851519        3
Pt       5.90063145       7.35788375      11.17301979        3
Pt       8.25851519      13.53090353      12.07365123        3
Pt      11.17301979      13.53090353      12.07365123        3
Pt       8.25851519       5.90063145      12.07365123        3
Pt      11.17301979       5.90063145      12.07365123        3
Pt       8.25851519      13.53090353       7.35788375        3
Pt      11.17301979      13.53090353       7.35788375        3
Au       8.25851519       5.90063145       7.35788375        3
Pt      11.17301979       5.90063145       7.35788375        3
