8
Lattice="10.0 0.0 0.0 0.0 10.0 0.0 0.0 0.0 10.0" Properties=species:S:1:pos:R:3 pbc="F F F"
Si       5.00000000       5.00000000       6.16768300
Si       5.00000000       5.00000000       3.83231700
H        5.00000000       6.39328600       6.68602000
H        3.79337900       4.30335700       6.68602000
H        6.20662100       4.30335700       6.68602000
H        5.00000000       3.60671400       3.31398000
H        3.79337900       5.69664300       3.31398000
H        6.20662100       5.69664300       3.31398000
