36
Lattice="11.518769465528859 0.0 0.0 5.759384732764429 9.975546977484491 0.0 0.0 0.0 25.48627093297442" Properties=species:S:1:pos:R:3:tags:I:1 pbc="T T F"
Si      -0.00000000       2.21678822      10.00000000        4
Si       3.83958982       2.21678822      10.00000000        4
Si       7.67917964       2.21678822      10.00000000        4
Si       1.91979491       5.54197054      10.00000000        4
Si       5.75938473       5.54197054      10.00000000        4
Si       9.59897455       5.54197054      10.00000000        4
Si       3.83958982       8.86715287      10.00000000        4
Si       7.67917964       8.86715287      10.00000000        4
Si      11.51876947       8.86715287      10.00000000        4
Si      -0.00000000       2.21678822      12.35125897        3
Si       3.83958982       2.21678822      12.35125897        3
Si       7.67917964       2.21678822      12.35125897        3
Si       1.91979491       5.54197054      12.35125897        3
Si       5.75938473       5.54197054      12.35125897        3
Si       9.59897455       5.54197054      12.35125897        3
Si       3.83958982       8.86715287      12.35125897        3
Si       7.67917964       8.86715287      12.35125897        3
Si      11.51876947       8.86715287      12.35125897        3
Si       0.00000000       0.00000000      13.13501196        2
Si       3.83958982       0.00000000      13.13501196        2
Si       7.67917964       0.00000000      13.13501196        2
Si       1.91979491       3.32518233      13.13501196        2
Si       5.75938473       3.32518233      13.13501196        2
Si       9.59897455       3.32518233      13.13501196        2
Si       3.83958982       6.65036465      13.13501196        2
Si       7.67917964       6.65036465      13.13501196        2
Si      11.51876947       6.65036465      13.13501196        2
Si       0.00000000       0.00000000      15.48627093        1
Si       3.83958982       0.00000000      15.48627093        1
Si       7.67917964       0.00000000      15.48627093        1
Si       1.91979491       3.32518233      15.48627093        1
Si       5.75938473       3.32518233      15.48627093        1
Si       9.59897455       3.32518233      15.48627093        1
Si       3.83958982       6.65036465      15.48627093        1
Si       7.67917964       6.65036465      15.48627093        1
Si      11.51876947       6.65036465      15.48627093        1
