36
Lattice="8.850000000000001 0.0 0.0 4.425000000000001 7.664324823492281 0.0 0.0 0.0 27.0269" Properties=species:S:1:pos:R:3:tags:I:1 pbc="T T F"
Ti      -0.00000000       1.70318329      10.00000000        4
Ti       2.95000000       1.70318329      10.00000000        4
Ti       5.90000000       1.70318329      10.00000000        4
Ti       1.47500000       4.25795824      10.00000000        4
Ti       4.42500000       4.25795824      10.00000000        4
Ti       7.37500000       4.25795824      10.00000000        4
Ti       2.95000000       6.81273318      10.00000000        4
Ti       5.90000000       6.81273318      10.00000000        4
Ti       8.85000000       6.81273318      10.00000000        4
Ti       0.00000000       0.00000000      12.34230000        3
Ti       2.95000000       0.00000000      12.34230000        3
Ti       5.90000000       0.00000000      12.34230000        3
Ti       1.47500000       2.55477494      12.34230000        3
Ti       4.42500000       2.55477494      12.34230000        3
Ti       7.37500000       2.55477494      12.34230000        3
Ti       2.95000000       5.10954988      12.34230000        3
Ti       5.90000000       5.10954988      12.34230000        3
Ti       8.85000000       5.10954988      12.34230000        3
Ti      -0.00000000       1.70318329      14.68460000        2
Ti       2.95000000       1.70318329      14.68460000        2
Ti       5.90000000       1.70318329      14.68460000        2
Ti       1.47500000       4.25795824      14.68460000        2
Ti       4.42500000       4.25795824      14.68460000        2
Ti       7.37500000       4.25795824      14.68460000        2
Ti       2.95000000       6.81273318      14.68460000        2
Ti       5.90000000       6.81273318      14.68460000        2
Ti       8.85000000       6.81273318      14.68460000        2
Ti       0.00000000       0.00000000      17.02690000        1
Ti       2.95000000       0.00000000      17.02690000        1
Ti       5.90000000       0.00000000      17.02690000        1
Ti       1.47500000       2.55477494      17.02690000        1
Ti       4.42500000       2.55477494      17.02690000        1
Ti       7.37500000       2.55477494      17.02690000        1
Ti       2.95000000       5.10954988      17.02690000        1
Ti       5.90000000       5.10954988      17.02690000        1
Ti       8.85000000       5.10954988      17.02690000        1
