14
Lattice="10.0 0.0 0.0 0.0 10.0 0.0 0.0 0.0 10.0" Properties=species:S:1:pos:R:3 pbc="F F F"
C        5.70258100       6.82087300       5.00000000
C        5.70258100       5.29632500       5.00000000
C        4.29741900       4.70367500       5.00000000
C        4.29741900       3.17912700       5.00000000
H        6.71980900       7.22234000       5.00000000
H        3.28019100       2.77766000       5.00000000
H        5.18815400       7.21036200       5.88361400
H        5.18815400       7.21036200       4.11638600
H        4.81184600       2.78963800       5.88361400
H        4.81184600       2.78963800       4.11638600
H        6.24770700       4.92734000       4.12243100
H        6.24770700       4.92734000       5.87756900
H        3.75229300       5.07266000       4.12243100
H        3.75229300       5.07266000       5.87756900
